p cnf 44 920
1 2 3 4 5 6 7 8 9 10 11 0
-1 -2 0
-1 -3 0
-1 -4 0
-1 -5 0
-1 -6 0
-1 -7 0
-1 -8 0
-1 -9 0
-1 -10 0
-1 -11 0
-2 -3 0
-2 -4 0
-2 -5 0
-2 -6 0
-2 -7 0
-2 -8 0
-2 -9 0
-2 -10 0
-2 -11 0
-3 -4 0
-3 -5 0
-3 -6 0
-3 -7 0
-3 -8 0
-3 -9 0
-3 -10 0
-3 -11 0
-4 -5 0
-4 -6 0
-4 -7 0
-4 -8 0
-4 -9 0
-4 -10 0
-4 -11 0
-5 -6 0
-5 -7 0
-5 -8 0
-5 -9 0
-5 -10 0
-5 -11 0
-6 -7 0
-6 -8 0
-6 -9 0
-6 -10 0
-6 -11 0
-7 -8 0
-7 -9 0
-7 -10 0
-7 -11 0
-8 -9 0
-8 -10 0
-8 -11 0
-9 -10 0
-9 -11 0
-10 -11 0
12 13 14 15 16 17 18 19 20 21 22 0
-12 -13 0
-12 -14 0
-12 -15 0
-12 -16 0
-12 -17 0
-12 -18 0
-12 -19 0
-12 -20 0
-12 -21 0
-12 -22 0
-13 -14 0
-13 -15 0
-13 -16 0
-13 -17 0
-13 -18 0
-13 -19 0
-13 -20 0
-13 -21 0
-13 -22 0
-14 -15 0
-14 -16 0
-14 -17 0
-14 -18 0
-14 -19 0
-14 -20 0
-14 -21 0
-14 -22 0
-15 -16 0
-15 -17 0
-15 -18 0
-15 -19 0
-15 -20 0
-15 -21 0
-15 -22 0
-16 -17 0
-16 -18 0
-16 -19 0
-16 -20 0
-16 -21 0
-16 -22 0
-17 -18 0
-17 -19 0
-17 -20 0
-17 -21 0
-17 -22 0
-18 -19 0
-18 -20 0
-18 -21 0
-18 -22 0
-19 -20 0
-19 -21 0
-19 -22 0
-20 -21 0
-20 -22 0
-21 -22 0
23 24 25 26 27 28 29 30 31 32 33 0
-23 -24 0
-23 -25 0
-23 -26 0
-23 -27 0
-23 -28 0
-23 -29 0
-23 -30 0
-23 -31 0
-23 -32 0
-23 -33 0
-24 -25 0
-24 -26 0
-24 -27 0
-24 -28 0
-24 -29 0
-24 -30 0
-24 -31 0
-24 -32 0
-24 -33 0
-25 -26 0
-25 -27 0
-25 -28 0
-25 -29 0
-25 -30 0
-25 -31 0
-25 -32 0
-25 -33 0
-26 -27 0
-26 -28 0
-26 -29 0
-26 -30 0
-26 -31 0
-26 -32 0
-26 -33 0
-27 -28 0
-27 -29 0
-27 -30 0
-27 -31 0
-27 -32 0
-27 -33 0
-28 -29 0
-28 -30 0
-28 -31 0
-28 -32 0
-28 -33 0
-29 -30 0
-29 -31 0
-29 -32 0
-29 -33 0
-30 -31 0
-30 -32 0
-30 -33 0
-31 -32 0
-31 -33 0
-32 -33 0
34 35 36 37 38 39 40 41 42 43 44 0
-34 -35 0
-34 -36 0
-34 -37 0
-34 -38 0
-34 -39 0
-34 -40 0
-34 -41 0
-34 -42 0
-34 -43 0
-34 -44 0
-35 -36 0
-35 -37 0
-35 -38 0
-35 -39 0
-35 -40 0
-35 -41 0
-35 -42 0
-35 -43 0
-35 -44 0
-36 -37 0
-36 -38 0
-36 -39 0
-36 -40 0
-36 -41 0
-36 -42 0
-36 -43 0
-36 -44 0
-37 -38 0
-37 -39 0
-37 -40 0
-37 -41 0
-37 -42 0
-37 -43 0
-37 -44 0
-38 -39 0
-38 -40 0
-38 -41 0
-38 -42 0
-38 -43 0
-38 -44 0
-39 -40 0
-39 -41 0
-39 -42 0
-39 -43 0
-39 -44 0
-40 -41 0
-40 -42 0
-40 -43 0
-40 -44 0
-41 -42 0
-41 -43 0
-41 -44 0
-42 -43 0
-42 -44 0
-43 -44 0
-1 -1 0
-1 -13 0
-1 -2 0
-1 -14 0
-1 -15 0
-1 -16 0
-1 -5 0
-1 -7 0
-1 -19 0
-1 -8 0
-1 -21 0
-1 -10 0
-1 -22 0
-1 -11 0
-2 -12 0
-2 -1 0
-2 -2 0
-2 -14 0
-2 -3 0
-2 -15 0
-2 -4 0
-2 -16 0
-2 -5 0
-2 -17 0
-2 -6 0
-2 -18 0
-2 -20 0
-2 -9 0
-2 -21 0
-3 -12 0
-3 -1 0
-3 -13 0
-3 -3 0
-3 -15 0
-3 -4 0
-3 -16 0
-3 -17 0
-3 -6 0
-3 -18 0
-3 -7 0
-3 -19 0
-3 -8 0
-3 -20 0
-3 -9 0
-3 -10 0
-3 -22 0
-3 -11 0
-4 -12 0
-4 -1 0
-4 -13 0
-4 -14 0
-4 -3 0
-4 -4 0
-4 -17 0
-4 -6 0
-4 -18 0
-4 -7 0
-4 -19 0
-4 -8 0
-4 -20 0
-4 -9 0
-4 -21 0
-4 -10 0
-4 -22 0
-4 -11 0
-5 -12 0
-5 -1 0
-5 -13 0
-5 -2 0
-5 -14 0
-5 -3 0
-5 -4 0
-5 -5 0
-5 -17 0
-5 -6 0
-5 -18 0
-5 -19 0
-5 -20 0
-5 -9 0
-5 -21 0
-5 -22 0
-6 -12 0
-6 -1 0
-6 -2 0
-6 -14 0
-6 -15 0
-6 -16 0
-6 -5 0
-6 -17 0
-6 -18 0
-6 -7 0
-6 -8 0
-6 -20 0
-6 -21 0
-6 -10 0
-6 -11 0
-7 -12 0
-7 -1 0
-7 -2 0
-7 -14 0
-7 -3 0
-7 -15 0
-7 -4 0
-7 -16 0
-7 -5 0
-7 -17 0
-7 -6 0
-7 -18 0
-7 -20 0
-7 -9 0
-7 -21 0
-8 -13 0
-8 -2 0
-8 -14 0
-8 -3 0
-8 -15 0
-8 -4 0
-8 -16 0
-8 -5 0
-8 -6 0
-8 -7 0
-8 -19 0
-8 -8 0
-8 -9 0
-8 -21 0
-8 -10 0
-8 -22 0
-8 -11 0
-9 -12 0
-9 -1 0
-9 -13 0
-9 -2 0
-9 -15 0
-9 -16 0
-9 -5 0
-9 -17 0
-9 -18 0
-9 -7 0
-9 -19 0
-9 -8 0
-9 -20 0
-9 -10 0
-9 -22 0
-9 -11 0
-10 -1 0
-10 -13 0
-10 -2 0
-10 -14 0
-10 -15 0
-10 -16 0
-10 -5 0
-10 -7 0
-10 -19 0
-10 -8 0
-10 -21 0
-10 -10 0
-10 -22 0
-10 -11 0
-11 -12 0
-11 -1 0
-11 -13 0
-11 -2 0
-11 -3 0
-11 -15 0
-11 -4 0
-11 -16 0
-11 -5 0
-11 -17 0
-11 -6 0
-11 -18 0
-11 -19 0
-11 -20 0
-11 -9 0
-11 -22 0
-12 -12 0
-12 -24 0
-12 -13 0
-12 -25 0
-12 -26 0
-12 -27 0
-12 -16 0
-12 -18 0
-12 -30 0
-12 -19 0
-12 -32 0
-12 -21 0
-12 -33 0
-12 -22 0
-13 -23 0
-13 -12 0
-13 -13 0
-13 -25 0
-13 -14 0
-13 -26 0
-13 -15 0
-13 -27 0
-13 -16 0
-13 -28 0
-13 -17 0
-13 -29 0
-13 -31 0
-13 -20 0
-13 -32 0
-14 -23 0
-14 -12 0
-14 -24 0
-14 -14 0
-14 -26 0
-14 -15 0
-14 -27 0
-14 -28 0
-14 -17 0
-14 -29 0
-14 -18 0
-14 -30 0
-14 -19 0
-14 -31 0
-14 -20 0
-14 -21 0
-14 -33 0
-14 -22 0
-15 -23 0
-15 -12 0
-15 -24 0
-15 -25 0
-15 -14 0
-15 -15 0
-15 -28 0
-15 -17 0
-15 -29 0
-15 -18 0
-15 -30 0
-15 -19 0
-15 -31 0
-15 -20 0
-15 -32 0
-15 -21 0
-15 -33 0
-15 -22 0
-16 -23 0
-16 -12 0
-16 -24 0
-16 -13 0
-16 -25 0
-16 -14 0
-16 -15 0
-16 -16 0
-16 -28 0
-16 -17 0
-16 -29 0
-16 -30 0
-16 -31 0
-16 -20 0
-16 -32 0
-16 -33 0
-17 -23 0
-17 -12 0
-17 -13 0
-17 -25 0
-17 -26 0
-17 -27 0
-17 -16 0
-17 -28 0
-17 -29 0
-17 -18 0
-17 -19 0
-17 -31 0
-17 -32 0
-17 -21 0
-17 -22 0
-18 -23 0
-18 -12 0
-18 -13 0
-18 -25 0
-18 -14 0
-18 -26 0
-18 -15 0
-18 -27 0
-18 -16 0
-18 -28 0
-18 -17 0
-18 -29 0
-18 -31 0
-18 -20 0
-18 -32 0
-19 -24 0
-19 -13 0
-19 -25 0
-19 -14 0
-19 -26 0
-19 -15 0
-19 -27 0
-19 -16 0
-19 -17 0
-19 -18 0
-19 -30 0
-19 -19 0
-19 -20 0
-19 -32 0
-19 -21 0
-19 -33 0
-19 -22 0
-20 -23 0
-20 -12 0
-20 -24 0
-20 -13 0
-20 -26 0
-20 -27 0
-20 -16 0
-20 -28 0
-20 -29 0
-20 -18 0
-20 -30 0
-20 -19 0
-20 -31 0
-20 -21 0
-20 -33 0
-20 -22 0
-21 -12 0
-21 -24 0
-21 -13 0
-21 -25 0
-21 -26 0
-21 -27 0
-21 -16 0
-21 -18 0
-21 -30 0
-21 -19 0
-21 -32 0
-21 -21 0
-21 -33 0
-21 -22 0
-22 -23 0
-22 -12 0
-22 -24 0
-22 -13 0
-22 -14 0
-22 -26 0
-22 -15 0
-22 -27 0
-22 -16 0
-22 -28 0
-22 -17 0
-22 -29 0
-22 -30 0
-22 -31 0
-22 -20 0
-22 -33 0
-23 -23 0
-23 -35 0
-23 -24 0
-23 -36 0
-23 -37 0
-23 -38 0
-23 -27 0
-23 -29 0
-23 -41 0
-23 -30 0
-23 -43 0
-23 -32 0
-23 -44 0
-23 -33 0
-24 -34 0
-24 -23 0
-24 -24 0
-24 -36 0
-24 -25 0
-24 -37 0
-24 -26 0
-24 -38 0
-24 -27 0
-24 -39 0
-24 -28 0
-24 -40 0
-24 -42 0
-24 -31 0
-24 -43 0
-25 -34 0
-25 -23 0
-25 -35 0
-25 -25 0
-25 -37 0
-25 -26 0
-25 -38 0
-25 -39 0
-25 -28 0
-25 -40 0
-25 -29 0
-25 -41 0
-25 -30 0
-25 -42 0
-25 -31 0
-25 -32 0
-25 -44 0
-25 -33 0
-26 -34 0
-26 -23 0
-26 -35 0
-26 -36 0
-26 -25 0
-26 -26 0
-26 -39 0
-26 -28 0
-26 -40 0
-26 -29 0
-26 -41 0
-26 -30 0
-26 -42 0
-26 -31 0
-26 -43 0
-26 -32 0
-26 -44 0
-26 -33 0
-27 -34 0
-27 -23 0
-27 -35 0
-27 -24 0
-27 -36 0
-27 -25 0
-27 -26 0
-27 -27 0
-27 -39 0
-27 -28 0
-27 -40 0
-27 -41 0
-27 -42 0
-27 -31 0
-27 -43 0
-27 -44 0
-28 -34 0
-28 -23 0
-28 -24 0
-28 -36 0
-28 -37 0
-28 -38 0
-28 -27 0
-28 -39 0
-28 -40 0
-28 -29 0
-28 -30 0
-28 -42 0
-28 -43 0
-28 -32 0
-28 -33 0
-29 -34 0
-29 -23 0
-29 -24 0
-29 -36 0
-29 -25 0
-29 -37 0
-29 -26 0
-29 -38 0
-29 -27 0
-29 -39 0
-29 -28 0
-29 -40 0
-29 -42 0
-29 -31 0
-29 -43 0
-30 -35 0
-30 -24 0
-30 -36 0
-30 -25 0
-30 -37 0
-30 -26 0
-30 -38 0
-30 -27 0
-30 -28 0
-30 -29 0
-30 -41 0
-30 -30 0
-30 -31 0
-30 -43 0
-30 -32 0
-30 -44 0
-30 -33 0
-31 -34 0
-31 -23 0
-31 -35 0
-31 -24 0
-31 -37 0
-31 -38 0
-31 -27 0
-31 -39 0
-31 -40 0
-31 -29 0
-31 -41 0
-31 -30 0
-31 -42 0
-31 -32 0
-31 -44 0
-31 -33 0
-32 -23 0
-32 -35 0
-32 -24 0
-32 -36 0
-32 -37 0
-32 -38 0
-32 -27 0
-32 -29 0
-32 -41 0
-32 -30 0
-32 -43 0
-32 -32 0
-32 -44 0
-32 -33 0
-33 -34 0
-33 -23 0
-33 -35 0
-33 -24 0
-33 -25 0
-33 -37 0
-33 -26 0
-33 -38 0
-33 -27 0
-33 -39 0
-33 -28 0
-33 -40 0
-33 -41 0
-33 -42 0
-33 -31 0
-33 -44 0
-34 -34 0
-34 -2 0
-34 -35 0
-34 -3 0
-34 -4 0
-34 -5 0
-34 -38 0
-34 -40 0
-34 -8 0
-34 -41 0
-34 -10 0
-34 -43 0
-34 -11 0
-34 -44 0
-35 -1 0
-35 -34 0
-35 -35 0
-35 -3 0
-35 -36 0
-35 -4 0
-35 -37 0
-35 -5 0
-35 -38 0
-35 -6 0
-35 -39 0
-35 -7 0
-35 -9 0
-35 -42 0
-35 -10 0
-36 -1 0
-36 -34 0
-36 -2 0
-36 -36 0
-36 -4 0
-36 -37 0
-36 -5 0
-36 -6 0
-36 -39 0
-36 -7 0
-36 -40 0
-36 -8 0
-36 -41 0
-36 -9 0
-36 -42 0
-36 -43 0
-36 -11 0
-36 -44 0
-37 -1 0
-37 -34 0
-37 -2 0
-37 -3 0
-37 -36 0
-37 -37 0
-37 -6 0
-37 -39 0
-37 -7 0
-37 -40 0
-37 -8 0
-37 -41 0
-37 -9 0
-37 -42 0
-37 -10 0
-37 -43 0
-37 -11 0
-37 -44 0
-38 -1 0
-38 -34 0
-38 -2 0
-38 -35 0
-38 -3 0
-38 -36 0
-38 -37 0
-38 -38 0
-38 -6 0
-38 -39 0
-38 -7 0
-38 -8 0
-38 -9 0
-38 -42 0
-38 -10 0
-38 -11 0
-39 -1 0
-39 -34 0
-39 -35 0
-39 -3 0
-39 -4 0
-39 -5 0
-39 -38 0
-39 -6 0
-39 -7 0
-39 -40 0
-39 -41 0
-39 -9 0
-39 -10 0
-39 -43 0
-39 -44 0
-40 -1 0
-40 -34 0
-40 -35 0
-40 -3 0
-40 -36 0
-40 -4 0
-40 -37 0
-40 -5 0
-40 -38 0
-40 -6 0
-40 -39 0
-40 -7 0
-40 -9 0
-40 -42 0
-40 -10 0
-41 -2 0
-41 -35 0
-41 -3 0
-41 -36 0
-41 -4 0
-41 -37 0
-41 -5 0
-41 -38 0
-41 -39 0
-41 -40 0
-41 -8 0
-41 -41 0
-41 -42 0
-41 -10 0
-41 -43 0
-41 -11 0
-41 -44 0
-42 -1 0
-42 -34 0
-42 -2 0
-42 -35 0
-42 -4 0
-42 -5 0
-42 -38 0
-42 -6 0
-42 -7 0
-42 -40 0
-42 -8 0
-42 -41 0
-42 -9 0
-42 -43 0
-42 -11 0
-42 -44 0
-43 -34 0
-43 -2 0
-43 -35 0
-43 -3 0
-43 -4 0
-43 -5 0
-43 -38 0
-43 -40 0
-43 -8 0
-43 -41 0
-43 -10 0
-43 -43 0
-43 -11 0
-43 -44 0
-44 -1 0
-44 -34 0
-44 -2 0
-44 -35 0
-44 -36 0
-44 -4 0
-44 -37 0
-44 -5 0
-44 -38 0
-44 -6 0
-44 -39 0
-44 -7 0
-44 -8 0
-44 -9 0
-44 -42 0
-44 -11 0
