p cnf 88 1840
1 2 3 4 5 6 7 8 9 10 11 0
-1 -2 0
-1 -3 0
-1 -4 0
-1 -5 0
-1 -6 0
-1 -7 0
-1 -8 0
-1 -9 0
-1 -10 0
-1 -11 0
-2 -3 0
-2 -4 0
-2 -5 0
-2 -6 0
-2 -7 0
-2 -8 0
-2 -9 0
-2 -10 0
-2 -11 0
-3 -4 0
-3 -5 0
-3 -6 0
-3 -7 0
-3 -8 0
-3 -9 0
-3 -10 0
-3 -11 0
-4 -5 0
-4 -6 0
-4 -7 0
-4 -8 0
-4 -9 0
-4 -10 0
-4 -11 0
-5 -6 0
-5 -7 0
-5 -8 0
-5 -9 0
-5 -10 0
-5 -11 0
-6 -7 0
-6 -8 0
-6 -9 0
-6 -10 0
-6 -11 0
-7 -8 0
-7 -9 0
-7 -10 0
-7 -11 0
-8 -9 0
-8 -10 0
-8 -11 0
-9 -10 0
-9 -11 0
-10 -11 0
12 13 14 15 16 17 18 19 20 21 22 0
-12 -13 0
-12 -14 0
-12 -15 0
-12 -16 0
-12 -17 0
-12 -18 0
-12 -19 0
-12 -20 0
-12 -21 0
-12 -22 0
-13 -14 0
-13 -15 0
-13 -16 0
-13 -17 0
-13 -18 0
-13 -19 0
-13 -20 0
-13 -21 0
-13 -22 0
-14 -15 0
-14 -16 0
-14 -17 0
-14 -18 0
-14 -19 0
-14 -20 0
-14 -21 0
-14 -22 0
-15 -16 0
-15 -17 0
-15 -18 0
-15 -19 0
-15 -20 0
-15 -21 0
-15 -22 0
-16 -17 0
-16 -18 0
-16 -19 0
-16 -20 0
-16 -21 0
-16 -22 0
-17 -18 0
-17 -19 0
-17 -20 0
-17 -21 0
-17 -22 0
-18 -19 0
-18 -20 0
-18 -21 0
-18 -22 0
-19 -20 0
-19 -21 0
-19 -22 0
-20 -21 0
-20 -22 0
-21 -22 0
23 24 25 26 27 28 29 30 31 32 33 0
-23 -24 0
-23 -25 0
-23 -26 0
-23 -27 0
-23 -28 0
-23 -29 0
-23 -30 0
-23 -31 0
-23 -32 0
-23 -33 0
-24 -25 0
-24 -26 0
-24 -27 0
-24 -28 0
-24 -29 0
-24 -30 0
-24 -31 0
-24 -32 0
-24 -33 0
-25 -26 0
-25 -27 0
-25 -28 0
-25 -29 0
-25 -30 0
-25 -31 0
-25 -32 0
-25 -33 0
-26 -27 0
-26 -28 0
-26 -29 0
-26 -30 0
-26 -31 0
-26 -32 0
-26 -33 0
-27 -28 0
-27 -29 0
-27 -30 0
-27 -31 0
-27 -32 0
-27 -33 0
-28 -29 0
-28 -30 0
-28 -31 0
-28 -32 0
-28 -33 0
-29 -30 0
-29 -31 0
-29 -32 0
-29 -33 0
-30 -31 0
-30 -32 0
-30 -33 0
-31 -32 0
-31 -33 0
-32 -33 0
34 35 36 37 38 39 40 41 42 43 44 0
-34 -35 0
-34 -36 0
-34 -37 0
-34 -38 0
-34 -39 0
-34 -40 0
-34 -41 0
-34 -42 0
-34 -43 0
-34 -44 0
-35 -36 0
-35 -37 0
-35 -38 0
-35 -39 0
-35 -40 0
-35 -41 0
-35 -42 0
-35 -43 0
-35 -44 0
-36 -37 0
-36 -38 0
-36 -39 0
-36 -40 0
-36 -41 0
-36 -42 0
-36 -43 0
-36 -44 0
-37 -38 0
-37 -39 0
-37 -40 0
-37 -41 0
-37 -42 0
-37 -43 0
-37 -44 0
-38 -39 0
-38 -40 0
-38 -41 0
-38 -42 0
-38 -43 0
-38 -44 0
-39 -40 0
-39 -41 0
-39 -42 0
-39 -43 0
-39 -44 0
-40 -41 0
-40 -42 0
-40 -43 0
-40 -44 0
-41 -42 0
-41 -43 0
-41 -44 0
-42 -43 0
-42 -44 0
-43 -44 0
45 46 47 48 49 50 51 52 53 54 55 0
-45 -46 0
-45 -47 0
-45 -48 0
-45 -49 0
-45 -50 0
-45 -51 0
-45 -52 0
-45 -53 0
-45 -54 0
-45 -55 0
-46 -47 0
-46 -48 0
-46 -49 0
-46 -50 0
-46 -51 0
-46 -52 0
-46 -53 0
-46 -54 0
-46 -55 0
-47 -48 0
-47 -49 0
-47 -50 0
-47 -51 0
-47 -52 0
-47 -53 0
-47 -54 0
-47 -55 0
-48 -49 0
-48 -50 0
-48 -51 0
-48 -52 0
-48 -53 0
-48 -54 0
-48 -55 0
-49 -50 0
-49 -51 0
-49 -52 0
-49 -53 0
-49 -54 0
-49 -55 0
-50 -51 0
-50 -52 0
-50 -53 0
-50 -54 0
-50 -55 0
-51 -52 0
-51 -53 0
-51 -54 0
-51 -55 0
-52 -53 0
-52 -54 0
-52 -55 0
-53 -54 0
-53 -55 0
-54 -55 0
56 57 58 59 60 61 62 63 64 65 66 0
-56 -57 0
-56 -58 0
-56 -59 0
-56 -60 0
-56 -61 0
-56 -62 0
-56 -63 0
-56 -64 0
-56 -65 0
-56 -66 0
-57 -58 0
-57 -59 0
-57 -60 0
-57 -61 0
-57 -62 0
-57 -63 0
-57 -64 0
-57 -65 0
-57 -66 0
-58 -59 0
-58 -60 0
-58 -61 0
-58 -62 0
-58 -63 0
-58 -64 0
-58 -65 0
-58 -66 0
-59 -60 0
-59 -61 0
-59 -62 0
-59 -63 0
-59 -64 0
-59 -65 0
-59 -66 0
-60 -61 0
-60 -62 0
-60 -63 0
-60 -64 0
-60 -65 0
-60 -66 0
-61 -62 0
-61 -63 0
-61 -64 0
-61 -65 0
-61 -66 0
-62 -63 0
-62 -64 0
-62 -65 0
-62 -66 0
-63 -64 0
-63 -65 0
-63 -66 0
-64 -65 0
-64 -66 0
-65 -66 0
67 68 69 70 71 72 73 74 75 76 77 0
-67 -68 0
-67 -69 0
-67 -70 0
-67 -71 0
-67 -72 0
-67 -73 0
-67 -74 0
-67 -75 0
-67 -76 0
-67 -77 0
-68 -69 0
-68 -70 0
-68 -71 0
-68 -72 0
-68 -73 0
-68 -74 0
-68 -75 0
-68 -76 0
-68 -77 0
-69 -70 0
-69 -71 0
-69 -72 0
-69 -73 0
-69 -74 0
-69 -75 0
-69 -76 0
-69 -77 0
-70 -71 0
-70 -72 0
-70 -73 0
-70 -74 0
-70 -75 0
-70 -76 0
-70 -77 0
-71 -72 0
-71 -73 0
-71 -74 0
-71 -75 0
-71 -76 0
-71 -77 0
-72 -73 0
-72 -74 0
-72 -75 0
-72 -76 0
-72 -77 0
-73 -74 0
-73 -75 0
-73 -76 0
-73 -77 0
-74 -75 0
-74 -76 0
-74 -77 0
-75 -76 0
-75 -77 0
-76 -77 0
78 79 80 81 82 83 84 85 86 87 88 0
-78 -79 0
-78 -80 0
-78 -81 0
-78 -82 0
-78 -83 0
-78 -84 0
-78 -85 0
-78 -86 0
-78 -87 0
-78 -88 0
-79 -80 0
-79 -81 0
-79 -82 0
-79 -83 0
-79 -84 0
-79 -85 0
-79 -86 0
-79 -87 0
-79 -88 0
-80 -81 0
-80 -82 0
-80 -83 0
-80 -84 0
-80 -85 0
-80 -86 0
-80 -87 0
-80 -88 0
-81 -82 0
-81 -83 0
-81 -84 0
-81 -85 0
-81 -86 0
-81 -87 0
-81 -88 0
-82 -83 0
-82 -84 0
-82 -85 0
-82 -86 0
-82 -87 0
-82 -88 0
-83 -84 0
-83 -85 0
-83 -86 0
-83 -87 0
-83 -88 0
-84 -85 0
-84 -86 0
-84 -87 0
-84 -88 0
-85 -86 0
-85 -87 0
-85 -88 0
-86 -87 0
-86 -88 0
-87 -88 0
-1 -45 0
-1 -13 0
-1 -46 0
-1 -14 0
-1 -15 0
-1 -16 0
-1 -49 0
-1 -51 0
-1 -19 0
-1 -52 0
-1 -21 0
-1 -54 0
-1 -22 0
-1 -55 0
-2 -12 0
-2 -45 0
-2 -46 0
-2 -14 0
-2 -47 0
-2 -15 0
-2 -48 0
-2 -16 0
-2 -49 0
-2 -17 0
-2 -50 0
-2 -18 0
-2 -20 0
-2 -53 0
-2 -21 0
-3 -12 0
-3 -45 0
-3 -13 0
-3 -47 0
-3 -15 0
-3 -48 0
-3 -16 0
-3 -17 0
-3 -50 0
-3 -18 0
-3 -51 0
-3 -19 0
-3 -52 0
-3 -20 0
-3 -53 0
-3 -54 0
-3 -22 0
-3 -55 0
-4 -12 0
-4 -45 0
-4 -13 0
-4 -14 0
-4 -47 0
-4 -48 0
-4 -17 0
-4 -50 0
-4 -18 0
-4 -51 0
-4 -19 0
-4 -52 0
-4 -20 0
-4 -53 0
-4 -21 0
-4 -54 0
-4 -22 0
-4 -55 0
-5 -12 0
-5 -45 0
-5 -13 0
-5 -46 0
-5 -14 0
-5 -47 0
-5 -48 0
-5 -49 0
-5 -17 0
-5 -50 0
-5 -18 0
-5 -19 0
-5 -20 0
-5 -53 0
-5 -21 0
-5 -22 0
-6 -12 0
-6 -45 0
-6 -46 0
-6 -14 0
-6 -15 0
-6 -16 0
-6 -49 0
-6 -17 0
-6 -18 0
-6 -51 0
-6 -52 0
-6 -20 0
-6 -21 0
-6 -54 0
-6 -55 0
-7 -12 0
-7 -45 0
-7 -46 0
-7 -14 0
-7 -47 0
-7 -15 0
-7 -48 0
-7 -16 0
-7 -49 0
-7 -17 0
-7 -50 0
-7 -18 0
-7 -20 0
-7 -53 0
-7 -21 0
-8 -13 0
-8 -46 0
-8 -14 0
-8 -47 0
-8 -15 0
-8 -48 0
-8 -16 0
-8 -49 0
-8 -50 0
-8 -51 0
-8 -19 0
-8 -52 0
-8 -53 0
-8 -21 0
-8 -54 0
-8 -22 0
-8 -55 0
-9 -12 0
-9 -45 0
-9 -13 0
-9 -46 0
-9 -15 0
-9 -16 0
-9 -49 0
-9 -17 0
-9 -18 0
-9 -51 0
-9 -19 0
-9 -52 0
-9 -20 0
-9 -54 0
-9 -22 0
-9 -55 0
-10 -45 0
-10 -13 0
-10 -46 0
-10 -14 0
-10 -15 0
-10 -16 0
-10 -49 0
-10 -51 0
-10 -19 0
-10 -52 0
-10 -21 0
-10 -54 0
-10 -22 0
-10 -55 0
-11 -12 0
-11 -45 0
-11 -13 0
-11 -46 0
-11 -47 0
-11 -15 0
-11 -48 0
-11 -16 0
-11 -49 0
-11 -17 0
-11 -50 0
-11 -18 0
-11 -19 0
-11 -20 0
-11 -53 0
-11 -22 0
-12 -56 0
-12 -24 0
-12 -57 0
-12 -25 0
-12 -26 0
-12 -27 0
-12 -60 0
-12 -62 0
-12 -30 0
-12 -63 0
-12 -32 0
-12 -65 0
-12 -33 0
-12 -66 0
-13 -23 0
-13 -56 0
-13 -57 0
-13 -25 0
-13 -58 0
-13 -26 0
-13 -59 0
-13 -27 0
-13 -60 0
-13 -28 0
-13 -61 0
-13 -29 0
-13 -31 0
-13 -64 0
-13 -32 0
-14 -23 0
-14 -56 0
-14 -24 0
-14 -58 0
-14 -26 0
-14 -59 0
-14 -27 0
-14 -28 0
-14 -61 0
-14 -29 0
-14 -62 0
-14 -30 0
-14 -63 0
-14 -31 0
-14 -64 0
-14 -65 0
-14 -33 0
-14 -66 0
-15 -23 0
-15 -56 0
-15 -24 0
-15 -25 0
-15 -58 0
-15 -59 0
-15 -28 0
-15 -61 0
-15 -29 0
-15 -62 0
-15 -30 0
-15 -63 0
-15 -31 0
-15 -64 0
-15 -32 0
-15 -65 0
-15 -33 0
-15 -66 0
-16 -23 0
-16 -56 0
-16 -24 0
-16 -57 0
-16 -25 0
-16 -58 0
-16 -59 0
-16 -60 0
-16 -28 0
-16 -61 0
-16 -29 0
-16 -30 0
-16 -31 0
-16 -64 0
-16 -32 0
-16 -33 0
-17 -23 0
-17 -56 0
-17 -57 0
-17 -25 0
-17 -26 0
-17 -27 0
-17 -60 0
-17 -28 0
-17 -29 0
-17 -62 0
-17 -63 0
-17 -31 0
-17 -32 0
-17 -65 0
-17 -66 0
-18 -23 0
-18 -56 0
-18 -57 0
-18 -25 0
-18 -58 0
-18 -26 0
-18 -59 0
-18 -27 0
-18 -60 0
-18 -28 0
-18 -61 0
-18 -29 0
-18 -31 0
-18 -64 0
-18 -32 0
-19 -24 0
-19 -57 0
-19 -25 0
-19 -58 0
-19 -26 0
-19 -59 0
-19 -27 0
-19 -60 0
-19 -61 0
-19 -62 0
-19 -30 0
-19 -63 0
-19 -64 0
-19 -32 0
-19 -65 0
-19 -33 0
-19 -66 0
-20 -23 0
-20 -56 0
-20 -24 0
-20 -57 0
-20 -26 0
-20 -27 0
-20 -60 0
-20 -28 0
-20 -29 0
-20 -62 0
-20 -30 0
-20 -63 0
-20 -31 0
-20 -65 0
-20 -33 0
-20 -66 0
-21 -56 0
-21 -24 0
-21 -57 0
-21 -25 0
-21 -26 0
-21 -27 0
-21 -60 0
-21 -62 0
-21 -30 0
-21 -63 0
-21 -32 0
-21 -65 0
-21 -33 0
-21 -66 0
-22 -23 0
-22 -56 0
-22 -24 0
-22 -57 0
-22 -58 0
-22 -26 0
-22 -59 0
-22 -27 0
-22 -60 0
-22 -28 0
-22 -61 0
-22 -29 0
-22 -30 0
-22 -31 0
-22 -64 0
-22 -33 0
-23 -67 0
-23 -35 0
-23 -68 0
-23 -36 0
-23 -37 0
-23 -38 0
-23 -71 0
-23 -73 0
-23 -41 0
-23 -74 0
-23 -43 0
-23 -76 0
-23 -44 0
-23 -77 0
-24 -34 0
-24 -67 0
-24 -68 0
-24 -36 0
-24 -69 0
-24 -37 0
-24 -70 0
-24 -38 0
-24 -71 0
-24 -39 0
-24 -72 0
-24 -40 0
-24 -42 0
-24 -75 0
-24 -43 0
-25 -34 0
-25 -67 0
-25 -35 0
-25 -69 0
-25 -37 0
-25 -70 0
-25 -38 0
-25 -39 0
-25 -72 0
-25 -40 0
-25 -73 0
-25 -41 0
-25 -74 0
-25 -42 0
-25 -75 0
-25 -76 0
-25 -44 0
-25 -77 0
-26 -34 0
-26 -67 0
-26 -35 0
-26 -36 0
-26 -69 0
-26 -70 0
-26 -39 0
-26 -72 0
-26 -40 0
-26 -73 0
-26 -41 0
-26 -74 0
-26 -42 0
-26 -75 0
-26 -43 0
-26 -76 0
-26 -44 0
-26 -77 0
-27 -34 0
-27 -67 0
-27 -35 0
-27 -68 0
-27 -36 0
-27 -69 0
-27 -70 0
-27 -71 0
-27 -39 0
-27 -72 0
-27 -40 0
-27 -41 0
-27 -42 0
-27 -75 0
-27 -43 0
-27 -44 0
-28 -34 0
-28 -67 0
-28 -68 0
-28 -36 0
-28 -37 0
-28 -38 0
-28 -71 0
-28 -39 0
-28 -40 0
-28 -73 0
-28 -74 0
-28 -42 0
-28 -43 0
-28 -76 0
-28 -77 0
-29 -34 0
-29 -67 0
-29 -68 0
-29 -36 0
-29 -69 0
-29 -37 0
-29 -70 0
-29 -38 0
-29 -71 0
-29 -39 0
-29 -72 0
-29 -40 0
-29 -42 0
-29 -75 0
-29 -43 0
-30 -35 0
-30 -68 0
-30 -36 0
-30 -69 0
-30 -37 0
-30 -70 0
-30 -38 0
-30 -71 0
-30 -72 0
-30 -73 0
-30 -41 0
-30 -74 0
-30 -75 0
-30 -43 0
-30 -76 0
-30 -44 0
-30 -77 0
-31 -34 0
-31 -67 0
-31 -35 0
-31 -68 0
-31 -37 0
-31 -38 0
-31 -71 0
-31 -39 0
-31 -40 0
-31 -73 0
-31 -41 0
-31 -74 0
-31 -42 0
-31 -76 0
-31 -44 0
-31 -77 0
-32 -67 0
-32 -35 0
-32 -68 0
-32 -36 0
-32 -37 0
-32 -38 0
-32 -71 0
-32 -73 0
-32 -41 0
-32 -74 0
-32 -43 0
-32 -76 0
-32 -44 0
-32 -77 0
-33 -34 0
-33 -67 0
-33 -35 0
-33 -68 0
-33 -69 0
-33 -37 0
-33 -70 0
-33 -38 0
-33 -71 0
-33 -39 0
-33 -72 0
-33 -40 0
-33 -41 0
-33 -42 0
-33 -75 0
-33 -44 0
-34 -78 0
-34 -2 0
-34 -79 0
-34 -3 0
-34 -4 0
-34 -5 0
-34 -82 0
-34 -84 0
-34 -8 0
-34 -85 0
-34 -10 0
-34 -87 0
-34 -11 0
-34 -88 0
-35 -1 0
-35 -78 0
-35 -79 0
-35 -3 0
-35 -80 0
-35 -4 0
-35 -81 0
-35 -5 0
-35 -82 0
-35 -6 0
-35 -83 0
-35 -7 0
-35 -9 0
-35 -86 0
-35 -10 0
-36 -1 0
-36 -78 0
-36 -2 0
-36 -80 0
-36 -4 0
-36 -81 0
-36 -5 0
-36 -6 0
-36 -83 0
-36 -7 0
-36 -84 0
-36 -8 0
-36 -85 0
-36 -9 0
-36 -86 0
-36 -87 0
-36 -11 0
-36 -88 0
-37 -1 0
-37 -78 0
-37 -2 0
-37 -3 0
-37 -80 0
-37 -81 0
-37 -6 0
-37 -83 0
-37 -7 0
-37 -84 0
-37 -8 0
-37 -85 0
-37 -9 0
-37 -86 0
-37 -10 0
-37 -87 0
-37 -11 0
-37 -88 0
-38 -1 0
-38 -78 0
-38 -2 0
-38 -79 0
-38 -3 0
-38 -80 0
-38 -81 0
-38 -82 0
-38 -6 0
-38 -83 0
-38 -7 0
-38 -8 0
-38 -9 0
-38 -86 0
-38 -10 0
-38 -11 0
-39 -1 0
-39 -78 0
-39 -79 0
-39 -3 0
-39 -4 0
-39 -5 0
-39 -82 0
-39 -6 0
-39 -7 0
-39 -84 0
-39 -85 0
-39 -9 0
-39 -10 0
-39 -87 0
-39 -88 0
-40 -1 0
-40 -78 0
-40 -79 0
-40 -3 0
-40 -80 0
-40 -4 0
-40 -81 0
-40 -5 0
-40 -82 0
-40 -6 0
-40 -83 0
-40 -7 0
-40 -9 0
-40 -86 0
-40 -10 0
-41 -2 0
-41 -79 0
-41 -3 0
-41 -80 0
-41 -4 0
-41 -81 0
-41 -5 0
-41 -82 0
-41 -83 0
-41 -84 0
-41 -8 0
-41 -85 0
-41 -86 0
-41 -10 0
-41 -87 0
-41 -11 0
-41 -88 0
-42 -1 0
-42 -78 0
-42 -2 0
-42 -79 0
-42 -4 0
-42 -5 0
-42 -82 0
-42 -6 0
-42 -7 0
-42 -84 0
-42 -8 0
-42 -85 0
-42 -9 0
-42 -87 0
-42 -11 0
-42 -88 0
-43 -78 0
-43 -2 0
-43 -79 0
-43 -3 0
-43 -4 0
-43 -5 0
-43 -82 0
-43 -84 0
-43 -8 0
-43 -85 0
-43 -10 0
-43 -87 0
-43 -11 0
-43 -88 0
-44 -1 0
-44 -78 0
-44 -2 0
-44 -79 0
-44 -80 0
-44 -4 0
-44 -81 0
-44 -5 0
-44 -82 0
-44 -6 0
-44 -83 0
-44 -7 0
-44 -8 0
-44 -9 0
-44 -86 0
-44 -11 0
-45 -1 0
-45 -57 0
-45 -2 0
-45 -58 0
-45 -59 0
-45 -60 0
-45 -5 0
-45 -7 0
-45 -63 0
-45 -8 0
-45 -65 0
-45 -10 0
-45 -66 0
-45 -11 0
-46 -56 0
-46 -1 0
-46 -2 0
-46 -58 0
-46 -3 0
-46 -59 0
-46 -4 0
-46 -60 0
-46 -5 0
-46 -61 0
-46 -6 0
-46 -62 0
-46 -64 0
-46 -9 0
-46 -65 0
-47 -56 0
-47 -1 0
-47 -57 0
-47 -3 0
-47 -59 0
-47 -4 0
-47 -60 0
-47 -61 0
-47 -6 0
-47 -62 0
-47 -7 0
-47 -63 0
-47 -8 0
-47 -64 0
-47 -9 0
-47 -10 0
-47 -66 0
-47 -11 0
-48 -56 0
-48 -1 0
-48 -57 0
-48 -58 0
-48 -3 0
-48 -4 0
-48 -61 0
-48 -6 0
-48 -62 0
-48 -7 0
-48 -63 0
-48 -8 0
-48 -64 0
-48 -9 0
-48 -65 0
-48 -10 0
-48 -66 0
-48 -11 0
-49 -56 0
-49 -1 0
-49 -57 0
-49 -2 0
-49 -58 0
-49 -3 0
-49 -4 0
-49 -5 0
-49 -61 0
-49 -6 0
-49 -62 0
-49 -63 0
-49 -64 0
-49 -9 0
-49 -65 0
-49 -66 0
-50 -56 0
-50 -1 0
-50 -2 0
-50 -58 0
-50 -59 0
-50 -60 0
-50 -5 0
-50 -61 0
-50 -62 0
-50 -7 0
-50 -8 0
-50 -64 0
-50 -65 0
-50 -10 0
-50 -11 0
-51 -56 0
-51 -1 0
-51 -2 0
-51 -58 0
-51 -3 0
-51 -59 0
-51 -4 0
-51 -60 0
-51 -5 0
-51 -61 0
-51 -6 0
-51 -62 0
-51 -64 0
-51 -9 0
-51 -65 0
-52 -57 0
-52 -2 0
-52 -58 0
-52 -3 0
-52 -59 0
-52 -4 0
-52 -60 0
-52 -5 0
-52 -6 0
-52 -7 0
-52 -63 0
-52 -8 0
-52 -9 0
-52 -65 0
-52 -10 0
-52 -66 0
-52 -11 0
-53 -56 0
-53 -1 0
-53 -57 0
-53 -2 0
-53 -59 0
-53 -60 0
-53 -5 0
-53 -61 0
-53 -62 0
-53 -7 0
-53 -63 0
-53 -8 0
-53 -64 0
-53 -10 0
-53 -66 0
-53 -11 0
-54 -1 0
-54 -57 0
-54 -2 0
-54 -58 0
-54 -59 0
-54 -60 0
-54 -5 0
-54 -7 0
-54 -63 0
-54 -8 0
-54 -65 0
-54 -10 0
-54 -66 0
-54 -11 0
-55 -56 0
-55 -1 0
-55 -57 0
-55 -2 0
-55 -3 0
-55 -59 0
-55 -4 0
-55 -60 0
-55 -5 0
-55 -61 0
-55 -6 0
-55 -62 0
-55 -63 0
-55 -64 0
-55 -9 0
-55 -66 0
-56 -12 0
-56 -68 0
-56 -13 0
-56 -69 0
-56 -70 0
-56 -71 0
-56 -16 0
-56 -18 0
-56 -74 0
-56 -19 0
-56 -76 0
-56 -21 0
-56 -77 0
-56 -22 0
-57 -67 0
-57 -12 0
-57 -13 0
-57 -69 0
-57 -14 0
-57 -70 0
-57 -15 0
-57 -71 0
-57 -16 0
-57 -72 0
-57 -17 0
-57 -73 0
-57 -75 0
-57 -20 0
-57 -76 0
-58 -67 0
-58 -12 0
-58 -68 0
-58 -14 0
-58 -70 0
-58 -15 0
-58 -71 0
-58 -72 0
-58 -17 0
-58 -73 0
-58 -18 0
-58 -74 0
-58 -19 0
-58 -75 0
-58 -20 0
-58 -21 0
-58 -77 0
-58 -22 0
-59 -67 0
-59 -12 0
-59 -68 0
-59 -69 0
-59 -14 0
-59 -15 0
-59 -72 0
-59 -17 0
-59 -73 0
-59 -18 0
-59 -74 0
-59 -19 0
-59 -75 0
-59 -20 0
-59 -76 0
-59 -21 0
-59 -77 0
-59 -22 0
-60 -67 0
-60 -12 0
-60 -68 0
-60 -13 0
-60 -69 0
-60 -14 0
-60 -15 0
-60 -16 0
-60 -72 0
-60 -17 0
-60 -73 0
-60 -74 0
-60 -75 0
-60 -20 0
-60 -76 0
-60 -77 0
-61 -67 0
-61 -12 0
-61 -13 0
-61 -69 0
-61 -70 0
-61 -71 0
-61 -16 0
-61 -72 0
-61 -73 0
-61 -18 0
-61 -19 0
-61 -75 0
-61 -76 0
-61 -21 0
-61 -22 0
-62 -67 0
-62 -12 0
-62 -13 0
-62 -69 0
-62 -14 0
-62 -70 0
-62 -15 0
-62 -71 0
-62 -16 0
-62 -72 0
-62 -17 0
-62 -73 0
-62 -75 0
-62 -20 0
-62 -76 0
-63 -68 0
-63 -13 0
-63 -69 0
-63 -14 0
-63 -70 0
-63 -15 0
-63 -71 0
-63 -16 0
-63 -17 0
-63 -18 0
-63 -74 0
-63 -19 0
-63 -20 0
-63 -76 0
-63 -21 0
-63 -77 0
-63 -22 0
-64 -67 0
-64 -12 0
-64 -68 0
-64 -13 0
-64 -70 0
-64 -71 0
-64 -16 0
-64 -72 0
-64 -73 0
-64 -18 0
-64 -74 0
-64 -19 0
-64 -75 0
-64 -21 0
-64 -77 0
-64 -22 0
-65 -12 0
-65 -68 0
-65 -13 0
-65 -69 0
-65 -70 0
-65 -71 0
-65 -16 0
-65 -18 0
-65 -74 0
-65 -19 0
-65 -76 0
-65 -21 0
-65 -77 0
-65 -22 0
-66 -67 0
-66 -12 0
-66 -68 0
-66 -13 0
-66 -14 0
-66 -70 0
-66 -15 0
-66 -71 0
-66 -16 0
-66 -72 0
-66 -17 0
-66 -73 0
-66 -74 0
-66 -75 0
-66 -20 0
-66 -77 0
-67 -23 0
-67 -79 0
-67 -24 0
-67 -80 0
-67 -81 0
-67 -82 0
-67 -27 0
-67 -29 0
-67 -85 0
-67 -30 0
-67 -87 0
-67 -32 0
-67 -88 0
-67 -33 0
-68 -78 0
-68 -23 0
-68 -24 0
-68 -80 0
-68 -25 0
-68 -81 0
-68 -26 0
-68 -82 0
-68 -27 0
-68 -83 0
-68 -28 0
-68 -84 0
-68 -86 0
-68 -31 0
-68 -87 0
-69 -78 0
-69 -23 0
-69 -79 0
-69 -25 0
-69 -81 0
-69 -26 0
-69 -82 0
-69 -83 0
-69 -28 0
-69 -84 0
-69 -29 0
-69 -85 0
-69 -30 0
-69 -86 0
-69 -31 0
-69 -32 0
-69 -88 0
-69 -33 0
-70 -78 0
-70 -23 0
-70 -79 0
-70 -80 0
-70 -25 0
-70 -26 0
-70 -83 0
-70 -28 0
-70 -84 0
-70 -29 0
-70 -85 0
-70 -30 0
-70 -86 0
-70 -31 0
-70 -87 0
-70 -32 0
-70 -88 0
-70 -33 0
-71 -78 0
-71 -23 0
-71 -79 0
-71 -24 0
-71 -80 0
-71 -25 0
-71 -26 0
-71 -27 0
-71 -83 0
-71 -28 0
-71 -84 0
-71 -85 0
-71 -86 0
-71 -31 0
-71 -87 0
-71 -88 0
-72 -78 0
-72 -23 0
-72 -24 0
-72 -80 0
-72 -81 0
-72 -82 0
-72 -27 0
-72 -83 0
-72 -84 0
-72 -29 0
-72 -30 0
-72 -86 0
-72 -87 0
-72 -32 0
-72 -33 0
-73 -78 0
-73 -23 0
-73 -24 0
-73 -80 0
-73 -25 0
-73 -81 0
-73 -26 0
-73 -82 0
-73 -27 0
-73 -83 0
-73 -28 0
-73 -84 0
-73 -86 0
-73 -31 0
-73 -87 0
-74 -79 0
-74 -24 0
-74 -80 0
-74 -25 0
-74 -81 0
-74 -26 0
-74 -82 0
-74 -27 0
-74 -28 0
-74 -29 0
-74 -85 0
-74 -30 0
-74 -31 0
-74 -87 0
-74 -32 0
-74 -88 0
-74 -33 0
-75 -78 0
-75 -23 0
-75 -79 0
-75 -24 0
-75 -81 0
-75 -82 0
-75 -27 0
-75 -83 0
-75 -84 0
-75 -29 0
-75 -85 0
-75 -30 0
-75 -86 0
-75 -32 0
-75 -88 0
-75 -33 0
-76 -23 0
-76 -79 0
-76 -24 0
-76 -80 0
-76 -81 0
-76 -82 0
-76 -27 0
-76 -29 0
-76 -85 0
-76 -30 0
-76 -87 0
-76 -32 0
-76 -88 0
-76 -33 0
-77 -78 0
-77 -23 0
-77 -79 0
-77 -24 0
-77 -25 0
-77 -81 0
-77 -26 0
-77 -82 0
-77 -27 0
-77 -83 0
-77 -28 0
-77 -84 0
-77 -85 0
-77 -86 0
-77 -31 0
-77 -88 0
-78 -34 0
-78 -46 0
-78 -35 0
-78 -47 0
-78 -48 0
-78 -49 0
-78 -38 0
-78 -40 0
-78 -52 0
-78 -41 0
-78 -54 0
-78 -43 0
-78 -55 0
-78 -44 0
-79 -45 0
-79 -34 0
-79 -35 0
-79 -47 0
-79 -36 0
-79 -48 0
-79 -37 0
-79 -49 0
-79 -38 0
-79 -50 0
-79 -39 0
-79 -51 0
-79 -53 0
-79 -42 0
-79 -54 0
-80 -45 0
-80 -34 0
-80 -46 0
-80 -36 0
-80 -48 0
-80 -37 0
-80 -49 0
-80 -50 0
-80 -39 0
-80 -51 0
-80 -40 0
-80 -52 0
-80 -41 0
-80 -53 0
-80 -42 0
-80 -43 0
-80 -55 0
-80 -44 0
-81 -45 0
-81 -34 0
-81 -46 0
-81 -47 0
-81 -36 0
-81 -37 0
-81 -50 0
-81 -39 0
-81 -51 0
-81 -40 0
-81 -52 0
-81 -41 0
-81 -53 0
-81 -42 0
-81 -54 0
-81 -43 0
-81 -55 0
-81 -44 0
-82 -45 0
-82 -34 0
-82 -46 0
-82 -35 0
-82 -47 0
-82 -36 0
-82 -37 0
-82 -38 0
-82 -50 0
-82 -39 0
-82 -51 0
-82 -52 0
-82 -53 0
-82 -42 0
-82 -54 0
-82 -55 0
-83 -45 0
-83 -34 0
-83 -35 0
-83 -47 0
-83 -48 0
-83 -49 0
-83 -38 0
-83 -50 0
-83 -51 0
-83 -40 0
-83 -41 0
-83 -53 0
-83 -54 0
-83 -43 0
-83 -44 0
-84 -45 0
-84 -34 0
-84 -35 0
-84 -47 0
-84 -36 0
-84 -48 0
-84 -37 0
-84 -49 0
-84 -38 0
-84 -50 0
-84 -39 0
-84 -51 0
-84 -53 0
-84 -42 0
-84 -54 0
-85 -46 0
-85 -35 0
-85 -47 0
-85 -36 0
-85 -48 0
-85 -37 0
-85 -49 0
-85 -38 0
-85 -39 0
-85 -40 0
-85 -52 0
-85 -41 0
-85 -42 0
-85 -54 0
-85 -43 0
-85 -55 0
-85 -44 0
-86 -45 0
-86 -34 0
-86 -46 0
-86 -35 0
-86 -48 0
-86 -49 0
-86 -38 0
-86 -50 0
-86 -51 0
-86 -40 0
-86 -52 0
-86 -41 0
-86 -53 0
-86 -43 0
-86 -55 0
-86 -44 0
-87 -34 0
-87 -46 0
-87 -35 0
-87 -47 0
-87 -48 0
-87 -49 0
-87 -38 0
-87 -40 0
-87 -52 0
-87 -41 0
-87 -54 0
-87 -43 0
-87 -55 0
-87 -44 0
-88 -45 0
-88 -34 0
-88 -46 0
-88 -35 0
-88 -36 0
-88 -48 0
-88 -37 0
-88 -49 0
-88 -38 0
-88 -50 0
-88 -39 0
-88 -51 0
-88 -52 0
-88 -53 0
-88 -42 0
-88 -55 0
