p cnf 132 2760
1 2 3 4 5 6 7 8 9 10 11 0
-1 -2 0
-1 -3 0
-1 -4 0
-1 -5 0
-1 -6 0
-1 -7 0
-1 -8 0
-1 -9 0
-1 -10 0
-1 -11 0
-2 -3 0
-2 -4 0
-2 -5 0
-2 -6 0
-2 -7 0
-2 -8 0
-2 -9 0
-2 -10 0
-2 -11 0
-3 -4 0
-3 -5 0
-3 -6 0
-3 -7 0
-3 -8 0
-3 -9 0
-3 -10 0
-3 -11 0
-4 -5 0
-4 -6 0
-4 -7 0
-4 -8 0
-4 -9 0
-4 -10 0
-4 -11 0
-5 -6 0
-5 -7 0
-5 -8 0
-5 -9 0
-5 -10 0
-5 -11 0
-6 -7 0
-6 -8 0
-6 -9 0
-6 -10 0
-6 -11 0
-7 -8 0
-7 -9 0
-7 -10 0
-7 -11 0
-8 -9 0
-8 -10 0
-8 -11 0
-9 -10 0
-9 -11 0
-10 -11 0
12 13 14 15 16 17 18 19 20 21 22 0
-12 -13 0
-12 -14 0
-12 -15 0
-12 -16 0
-12 -17 0
-12 -18 0
-12 -19 0
-12 -20 0
-12 -21 0
-12 -22 0
-13 -14 0
-13 -15 0
-13 -16 0
-13 -17 0
-13 -18 0
-13 -19 0
-13 -20 0
-13 -21 0
-13 -22 0
-14 -15 0
-14 -16 0
-14 -17 0
-14 -18 0
-14 -19 0
-14 -20 0
-14 -21 0
-14 -22 0
-15 -16 0
-15 -17 0
-15 -18 0
-15 -19 0
-15 -20 0
-15 -21 0
-15 -22 0
-16 -17 0
-16 -18 0
-16 -19 0
-16 -20 0
-16 -21 0
-16 -22 0
-17 -18 0
-17 -19 0
-17 -20 0
-17 -21 0
-17 -22 0
-18 -19 0
-18 -20 0
-18 -21 0
-18 -22 0
-19 -20 0
-19 -21 0
-19 -22 0
-20 -21 0
-20 -22 0
-21 -22 0
23 24 25 26 27 28 29 30 31 32 33 0
-23 -24 0
-23 -25 0
-23 -26 0
-23 -27 0
-23 -28 0
-23 -29 0
-23 -30 0
-23 -31 0
-23 -32 0
-23 -33 0
-24 -25 0
-24 -26 0
-24 -27 0
-24 -28 0
-24 -29 0
-24 -30 0
-24 -31 0
-24 -32 0
-24 -33 0
-25 -26 0
-25 -27 0
-25 -28 0
-25 -29 0
-25 -30 0
-25 -31 0
-25 -32 0
-25 -33 0
-26 -27 0
-26 -28 0
-26 -29 0
-26 -30 0
-26 -31 0
-26 -32 0
-26 -33 0
-27 -28 0
-27 -29 0
-27 -30 0
-27 -31 0
-27 -32 0
-27 -33 0
-28 -29 0
-28 -30 0
-28 -31 0
-28 -32 0
-28 -33 0
-29 -30 0
-29 -31 0
-29 -32 0
-29 -33 0
-30 -31 0
-30 -32 0
-30 -33 0
-31 -32 0
-31 -33 0
-32 -33 0
34 35 36 37 38 39 40 41 42 43 44 0
-34 -35 0
-34 -36 0
-34 -37 0
-34 -38 0
-34 -39 0
-34 -40 0
-34 -41 0
-34 -42 0
-34 -43 0
-34 -44 0
-35 -36 0
-35 -37 0
-35 -38 0
-35 -39 0
-35 -40 0
-35 -41 0
-35 -42 0
-35 -43 0
-35 -44 0
-36 -37 0
-36 -38 0
-36 -39 0
-36 -40 0
-36 -41 0
-36 -42 0
-36 -43 0
-36 -44 0
-37 -38 0
-37 -39 0
-37 -40 0
-37 -41 0
-37 -42 0
-37 -43 0
-37 -44 0
-38 -39 0
-38 -40 0
-38 -41 0
-38 -42 0
-38 -43 0
-38 -44 0
-39 -40 0
-39 -41 0
-39 -42 0
-39 -43 0
-39 -44 0
-40 -41 0
-40 -42 0
-40 -43 0
-40 -44 0
-41 -42 0
-41 -43 0
-41 -44 0
-42 -43 0
-42 -44 0
-43 -44 0
45 46 47 48 49 50 51 52 53 54 55 0
-45 -46 0
-45 -47 0
-45 -48 0
-45 -49 0
-45 -50 0
-45 -51 0
-45 -52 0
-45 -53 0
-45 -54 0
-45 -55 0
-46 -47 0
-46 -48 0
-46 -49 0
-46 -50 0
-46 -51 0
-46 -52 0
-46 -53 0
-46 -54 0
-46 -55 0
-47 -48 0
-47 -49 0
-47 -50 0
-47 -51 0
-47 -52 0
-47 -53 0
-47 -54 0
-47 -55 0
-48 -49 0
-48 -50 0
-48 -51 0
-48 -52 0
-48 -53 0
-48 -54 0
-48 -55 0
-49 -50 0
-49 -51 0
-49 -52 0
-49 -53 0
-49 -54 0
-49 -55 0
-50 -51 0
-50 -52 0
-50 -53 0
-50 -54 0
-50 -55 0
-51 -52 0
-51 -53 0
-51 -54 0
-51 -55 0
-52 -53 0
-52 -54 0
-52 -55 0
-53 -54 0
-53 -55 0
-54 -55 0
56 57 58 59 60 61 62 63 64 65 66 0
-56 -57 0
-56 -58 0
-56 -59 0
-56 -60 0
-56 -61 0
-56 -62 0
-56 -63 0
-56 -64 0
-56 -65 0
-56 -66 0
-57 -58 0
-57 -59 0
-57 -60 0
-57 -61 0
-57 -62 0
-57 -63 0
-57 -64 0
-57 -65 0
-57 -66 0
-58 -59 0
-58 -60 0
-58 -61 0
-58 -62 0
-58 -63 0
-58 -64 0
-58 -65 0
-58 -66 0
-59 -60 0
-59 -61 0
-59 -62 0
-59 -63 0
-59 -64 0
-59 -65 0
-59 -66 0
-60 -61 0
-60 -62 0
-60 -63 0
-60 -64 0
-60 -65 0
-60 -66 0
-61 -62 0
-61 -63 0
-61 -64 0
-61 -65 0
-61 -66 0
-62 -63 0
-62 -64 0
-62 -65 0
-62 -66 0
-63 -64 0
-63 -65 0
-63 -66 0
-64 -65 0
-64 -66 0
-65 -66 0
67 68 69 70 71 72 73 74 75 76 77 0
-67 -68 0
-67 -69 0
-67 -70 0
-67 -71 0
-67 -72 0
-67 -73 0
-67 -74 0
-67 -75 0
-67 -76 0
-67 -77 0
-68 -69 0
-68 -70 0
-68 -71 0
-68 -72 0
-68 -73 0
-68 -74 0
-68 -75 0
-68 -76 0
-68 -77 0
-69 -70 0
-69 -71 0
-69 -72 0
-69 -73 0
-69 -74 0
-69 -75 0
-69 -76 0
-69 -77 0
-70 -71 0
-70 -72 0
-70 -73 0
-70 -74 0
-70 -75 0
-70 -76 0
-70 -77 0
-71 -72 0
-71 -73 0
-71 -74 0
-71 -75 0
-71 -76 0
-71 -77 0
-72 -73 0
-72 -74 0
-72 -75 0
-72 -76 0
-72 -77 0
-73 -74 0
-73 -75 0
-73 -76 0
-73 -77 0
-74 -75 0
-74 -76 0
-74 -77 0
-75 -76 0
-75 -77 0
-76 -77 0
78 79 80 81 82 83 84 85 86 87 88 0
-78 -79 0
-78 -80 0
-78 -81 0
-78 -82 0
-78 -83 0
-78 -84 0
-78 -85 0
-78 -86 0
-78 -87 0
-78 -88 0
-79 -80 0
-79 -81 0
-79 -82 0
-79 -83 0
-79 -84 0
-79 -85 0
-79 -86 0
-79 -87 0
-79 -88 0
-80 -81 0
-80 -82 0
-80 -83 0
-80 -84 0
-80 -85 0
-80 -86 0
-80 -87 0
-80 -88 0
-81 -82 0
-81 -83 0
-81 -84 0
-81 -85 0
-81 -86 0
-81 -87 0
-81 -88 0
-82 -83 0
-82 -84 0
-82 -85 0
-82 -86 0
-82 -87 0
-82 -88 0
-83 -84 0
-83 -85 0
-83 -86 0
-83 -87 0
-83 -88 0
-84 -85 0
-84 -86 0
-84 -87 0
-84 -88 0
-85 -86 0
-85 -87 0
-85 -88 0
-86 -87 0
-86 -88 0
-87 -88 0
89 90 91 92 93 94 95 96 97 98 99 0
-89 -90 0
-89 -91 0
-89 -92 0
-89 -93 0
-89 -94 0
-89 -95 0
-89 -96 0
-89 -97 0
-89 -98 0
-89 -99 0
-90 -91 0
-90 -92 0
-90 -93 0
-90 -94 0
-90 -95 0
-90 -96 0
-90 -97 0
-90 -98 0
-90 -99 0
-91 -92 0
-91 -93 0
-91 -94 0
-91 -95 0
-91 -96 0
-91 -97 0
-91 -98 0
-91 -99 0
-92 -93 0
-92 -94 0
-92 -95 0
-92 -96 0
-92 -97 0
-92 -98 0
-92 -99 0
-93 -94 0
-93 -95 0
-93 -96 0
-93 -97 0
-93 -98 0
-93 -99 0
-94 -95 0
-94 -96 0
-94 -97 0
-94 -98 0
-94 -99 0
-95 -96 0
-95 -97 0
-95 -98 0
-95 -99 0
-96 -97 0
-96 -98 0
-96 -99 0
-97 -98 0
-97 -99 0
-98 -99 0
100 101 102 103 104 105 106 107 108 109 110 0
-100 -101 0
-100 -102 0
-100 -103 0
-100 -104 0
-100 -105 0
-100 -106 0
-100 -107 0
-100 -108 0
-100 -109 0
-100 -110 0
-101 -102 0
-101 -103 0
-101 -104 0
-101 -105 0
-101 -106 0
-101 -107 0
-101 -108 0
-101 -109 0
-101 -110 0
-102 -103 0
-102 -104 0
-102 -105 0
-102 -106 0
-102 -107 0
-102 -108 0
-102 -109 0
-102 -110 0
-103 -104 0
-103 -105 0
-103 -106 0
-103 -107 0
-103 -108 0
-103 -109 0
-103 -110 0
-104 -105 0
-104 -106 0
-104 -107 0
-104 -108 0
-104 -109 0
-104 -110 0
-105 -106 0
-105 -107 0
-105 -108 0
-105 -109 0
-105 -110 0
-106 -107 0
-106 -108 0
-106 -109 0
-106 -110 0
-107 -108 0
-107 -109 0
-107 -110 0
-108 -109 0
-108 -110 0
-109 -110 0
111 112 113 114 115 116 117 118 119 120 121 0
-111 -112 0
-111 -113 0
-111 -114 0
-111 -115 0
-111 -116 0
-111 -117 0
-111 -118 0
-111 -119 0
-111 -120 0
-111 -121 0
-112 -113 0
-112 -114 0
-112 -115 0
-112 -116 0
-112 -117 0
-112 -118 0
-112 -119 0
-112 -120 0
-112 -121 0
-113 -114 0
-113 -115 0
-113 -116 0
-113 -117 0
-113 -118 0
-113 -119 0
-113 -120 0
-113 -121 0
-114 -115 0
-114 -116 0
-114 -117 0
-114 -118 0
-114 -119 0
-114 -120 0
-114 -121 0
-115 -116 0
-115 -117 0
-115 -118 0
-115 -119 0
-115 -120 0
-115 -121 0
-116 -117 0
-116 -118 0
-116 -119 0
-116 -120 0
-116 -121 0
-117 -118 0
-117 -119 0
-117 -120 0
-117 -121 0
-118 -119 0
-118 -120 0
-118 -121 0
-119 -120 0
-119 -121 0
-120 -121 0
122 123 124 125 126 127 128 129 130 131 132 0
-122 -123 0
-122 -124 0
-122 -125 0
-122 -126 0
-122 -127 0
-122 -128 0
-122 -129 0
-122 -130 0
-122 -131 0
-122 -132 0
-123 -124 0
-123 -125 0
-123 -126 0
-123 -127 0
-123 -128 0
-123 -129 0
-123 -130 0
-123 -131 0
-123 -132 0
-124 -125 0
-124 -126 0
-124 -127 0
-124 -128 0
-124 -129 0
-124 -130 0
-124 -131 0
-124 -132 0
-125 -126 0
-125 -127 0
-125 -128 0
-125 -129 0
-125 -130 0
-125 -131 0
-125 -132 0
-126 -127 0
-126 -128 0
-126 -129 0
-126 -130 0
-126 -131 0
-126 -132 0
-127 -128 0
-127 -129 0
-127 -130 0
-127 -131 0
-127 -132 0
-128 -129 0
-128 -130 0
-128 -131 0
-128 -132 0
-129 -130 0
-129 -131 0
-129 -132 0
-130 -131 0
-130 -132 0
-131 -132 0
-1 -45 0
-1 -13 0
-1 -46 0
-1 -14 0
-1 -15 0
-1 -16 0
-1 -49 0
-1 -51 0
-1 -19 0
-1 -52 0
-1 -21 0
-1 -54 0
-1 -22 0
-1 -55 0
-2 -12 0
-2 -45 0
-2 -46 0
-2 -14 0
-2 -47 0
-2 -15 0
-2 -48 0
-2 -16 0
-2 -49 0
-2 -17 0
-2 -50 0
-2 -18 0
-2 -20 0
-2 -53 0
-2 -21 0
-3 -12 0
-3 -45 0
-3 -13 0
-3 -47 0
-3 -15 0
-3 -48 0
-3 -16 0
-3 -17 0
-3 -50 0
-3 -18 0
-3 -51 0
-3 -19 0
-3 -52 0
-3 -20 0
-3 -53 0
-3 -54 0
-3 -22 0
-3 -55 0
-4 -12 0
-4 -45 0
-4 -13 0
-4 -14 0
-4 -47 0
-4 -48 0
-4 -17 0
-4 -50 0
-4 -18 0
-4 -51 0
-4 -19 0
-4 -52 0
-4 -20 0
-4 -53 0
-4 -21 0
-4 -54 0
-4 -22 0
-4 -55 0
-5 -12 0
-5 -45 0
-5 -13 0
-5 -46 0
-5 -14 0
-5 -47 0
-5 -48 0
-5 -49 0
-5 -17 0
-5 -50 0
-5 -18 0
-5 -19 0
-5 -20 0
-5 -53 0
-5 -21 0
-5 -22 0
-6 -12 0
-6 -45 0
-6 -46 0
-6 -14 0
-6 -15 0
-6 -16 0
-6 -49 0
-6 -17 0
-6 -18 0
-6 -51 0
-6 -52 0
-6 -20 0
-6 -21 0
-6 -54 0
-6 -55 0
-7 -12 0
-7 -45 0
-7 -46 0
-7 -14 0
-7 -47 0
-7 -15 0
-7 -48 0
-7 -16 0
-7 -49 0
-7 -17 0
-7 -50 0
-7 -18 0
-7 -20 0
-7 -53 0
-7 -21 0
-8 -13 0
-8 -46 0
-8 -14 0
-8 -47 0
-8 -15 0
-8 -48 0
-8 -16 0
-8 -49 0
-8 -50 0
-8 -51 0
-8 -19 0
-8 -52 0
-8 -53 0
-8 -21 0
-8 -54 0
-8 -22 0
-8 -55 0
-9 -12 0
-9 -45 0
-9 -13 0
-9 -46 0
-9 -15 0
-9 -16 0
-9 -49 0
-9 -17 0
-9 -18 0
-9 -51 0
-9 -19 0
-9 -52 0
-9 -20 0
-9 -54 0
-9 -22 0
-9 -55 0
-10 -45 0
-10 -13 0
-10 -46 0
-10 -14 0
-10 -15 0
-10 -16 0
-10 -49 0
-10 -51 0
-10 -19 0
-10 -52 0
-10 -21 0
-10 -54 0
-10 -22 0
-10 -55 0
-11 -12 0
-11 -45 0
-11 -13 0
-11 -46 0
-11 -47 0
-11 -15 0
-11 -48 0
-11 -16 0
-11 -49 0
-11 -17 0
-11 -50 0
-11 -18 0
-11 -19 0
-11 -20 0
-11 -53 0
-11 -22 0
-12 -56 0
-12 -24 0
-12 -57 0
-12 -25 0
-12 -26 0
-12 -27 0
-12 -60 0
-12 -62 0
-12 -30 0
-12 -63 0
-12 -32 0
-12 -65 0
-12 -33 0
-12 -66 0
-13 -23 0
-13 -56 0
-13 -57 0
-13 -25 0
-13 -58 0
-13 -26 0
-13 -59 0
-13 -27 0
-13 -60 0
-13 -28 0
-13 -61 0
-13 -29 0
-13 -31 0
-13 -64 0
-13 -32 0
-14 -23 0
-14 -56 0
-14 -24 0
-14 -58 0
-14 -26 0
-14 -59 0
-14 -27 0
-14 -28 0
-14 -61 0
-14 -29 0
-14 -62 0
-14 -30 0
-14 -63 0
-14 -31 0
-14 -64 0
-14 -65 0
-14 -33 0
-14 -66 0
-15 -23 0
-15 -56 0
-15 -24 0
-15 -25 0
-15 -58 0
-15 -59 0
-15 -28 0
-15 -61 0
-15 -29 0
-15 -62 0
-15 -30 0
-15 -63 0
-15 -31 0
-15 -64 0
-15 -32 0
-15 -65 0
-15 -33 0
-15 -66 0
-16 -23 0
-16 -56 0
-16 -24 0
-16 -57 0
-16 -25 0
-16 -58 0
-16 -59 0
-16 -60 0
-16 -28 0
-16 -61 0
-16 -29 0
-16 -30 0
-16 -31 0
-16 -64 0
-16 -32 0
-16 -33 0
-17 -23 0
-17 -56 0
-17 -57 0
-17 -25 0
-17 -26 0
-17 -27 0
-17 -60 0
-17 -28 0
-17 -29 0
-17 -62 0
-17 -63 0
-17 -31 0
-17 -32 0
-17 -65 0
-17 -66 0
-18 -23 0
-18 -56 0
-18 -57 0
-18 -25 0
-18 -58 0
-18 -26 0
-18 -59 0
-18 -27 0
-18 -60 0
-18 -28 0
-18 -61 0
-18 -29 0
-18 -31 0
-18 -64 0
-18 -32 0
-19 -24 0
-19 -57 0
-19 -25 0
-19 -58 0
-19 -26 0
-19 -59 0
-19 -27 0
-19 -60 0
-19 -61 0
-19 -62 0
-19 -30 0
-19 -63 0
-19 -64 0
-19 -32 0
-19 -65 0
-19 -33 0
-19 -66 0
-20 -23 0
-20 -56 0
-20 -24 0
-20 -57 0
-20 -26 0
-20 -27 0
-20 -60 0
-20 -28 0
-20 -29 0
-20 -62 0
-20 -30 0
-20 -63 0
-20 -31 0
-20 -65 0
-20 -33 0
-20 -66 0
-21 -56 0
-21 -24 0
-21 -57 0
-21 -25 0
-21 -26 0
-21 -27 0
-21 -60 0
-21 -62 0
-21 -30 0
-21 -63 0
-21 -32 0
-21 -65 0
-21 -33 0
-21 -66 0
-22 -23 0
-22 -56 0
-22 -24 0
-22 -57 0
-22 -58 0
-22 -26 0
-22 -59 0
-22 -27 0
-22 -60 0
-22 -28 0
-22 -61 0
-22 -29 0
-22 -30 0
-22 -31 0
-22 -64 0
-22 -33 0
-23 -67 0
-23 -35 0
-23 -68 0
-23 -36 0
-23 -37 0
-23 -38 0
-23 -71 0
-23 -73 0
-23 -41 0
-23 -74 0
-23 -43 0
-23 -76 0
-23 -44 0
-23 -77 0
-24 -34 0
-24 -67 0
-24 -68 0
-24 -36 0
-24 -69 0
-24 -37 0
-24 -70 0
-24 -38 0
-24 -71 0
-24 -39 0
-24 -72 0
-24 -40 0
-24 -42 0
-24 -75 0
-24 -43 0
-25 -34 0
-25 -67 0
-25 -35 0
-25 -69 0
-25 -37 0
-25 -70 0
-25 -38 0
-25 -39 0
-25 -72 0
-25 -40 0
-25 -73 0
-25 -41 0
-25 -74 0
-25 -42 0
-25 -75 0
-25 -76 0
-25 -44 0
-25 -77 0
-26 -34 0
-26 -67 0
-26 -35 0
-26 -36 0
-26 -69 0
-26 -70 0
-26 -39 0
-26 -72 0
-26 -40 0
-26 -73 0
-26 -41 0
-26 -74 0
-26 -42 0
-26 -75 0
-26 -43 0
-26 -76 0
-26 -44 0
-26 -77 0
-27 -34 0
-27 -67 0
-27 -35 0
-27 -68 0
-27 -36 0
-27 -69 0
-27 -70 0
-27 -71 0
-27 -39 0
-27 -72 0
-27 -40 0
-27 -41 0
-27 -42 0
-27 -75 0
-27 -43 0
-27 -44 0
-28 -34 0
-28 -67 0
-28 -68 0
-28 -36 0
-28 -37 0
-28 -38 0
-28 -71 0
-28 -39 0
-28 -40 0
-28 -73 0
-28 -74 0
-28 -42 0
-28 -43 0
-28 -76 0
-28 -77 0
-29 -34 0
-29 -67 0
-29 -68 0
-29 -36 0
-29 -69 0
-29 -37 0
-29 -70 0
-29 -38 0
-29 -71 0
-29 -39 0
-29 -72 0
-29 -40 0
-29 -42 0
-29 -75 0
-29 -43 0
-30 -35 0
-30 -68 0
-30 -36 0
-30 -69 0
-30 -37 0
-30 -70 0
-30 -38 0
-30 -71 0
-30 -72 0
-30 -73 0
-30 -41 0
-30 -74 0
-30 -75 0
-30 -43 0
-30 -76 0
-30 -44 0
-30 -77 0
-31 -34 0
-31 -67 0
-31 -35 0
-31 -68 0
-31 -37 0
-31 -38 0
-31 -71 0
-31 -39 0
-31 -40 0
-31 -73 0
-31 -41 0
-31 -74 0
-31 -42 0
-31 -76 0
-31 -44 0
-31 -77 0
-32 -67 0
-32 -35 0
-32 -68 0
-32 -36 0
-32 -37 0
-32 -38 0
-32 -71 0
-32 -73 0
-32 -41 0
-32 -74 0
-32 -43 0
-32 -76 0
-32 -44 0
-32 -77 0
-33 -34 0
-33 -67 0
-33 -35 0
-33 -68 0
-33 -69 0
-33 -37 0
-33 -70 0
-33 -38 0
-33 -71 0
-33 -39 0
-33 -72 0
-33 -40 0
-33 -41 0
-33 -42 0
-33 -75 0
-33 -44 0
-34 -78 0
-34 -2 0
-34 -79 0
-34 -3 0
-34 -4 0
-34 -5 0
-34 -82 0
-34 -84 0
-34 -8 0
-34 -85 0
-34 -10 0
-34 -87 0
-34 -11 0
-34 -88 0
-35 -1 0
-35 -78 0
-35 -79 0
-35 -3 0
-35 -80 0
-35 -4 0
-35 -81 0
-35 -5 0
-35 -82 0
-35 -6 0
-35 -83 0
-35 -7 0
-35 -9 0
-35 -86 0
-35 -10 0
-36 -1 0
-36 -78 0
-36 -2 0
-36 -80 0
-36 -4 0
-36 -81 0
-36 -5 0
-36 -6 0
-36 -83 0
-36 -7 0
-36 -84 0
-36 -8 0
-36 -85 0
-36 -9 0
-36 -86 0
-36 -87 0
-36 -11 0
-36 -88 0
-37 -1 0
-37 -78 0
-37 -2 0
-37 -3 0
-37 -80 0
-37 -81 0
-37 -6 0
-37 -83 0
-37 -7 0
-37 -84 0
-37 -8 0
-37 -85 0
-37 -9 0
-37 -86 0
-37 -10 0
-37 -87 0
-37 -11 0
-37 -88 0
-38 -1 0
-38 -78 0
-38 -2 0
-38 -79 0
-38 -3 0
-38 -80 0
-38 -81 0
-38 -82 0
-38 -6 0
-38 -83 0
-38 -7 0
-38 -8 0
-38 -9 0
-38 -86 0
-38 -10 0
-38 -11 0
-39 -1 0
-39 -78 0
-39 -79 0
-39 -3 0
-39 -4 0
-39 -5 0
-39 -82 0
-39 -6 0
-39 -7 0
-39 -84 0
-39 -85 0
-39 -9 0
-39 -10 0
-39 -87 0
-39 -88 0
-40 -1 0
-40 -78 0
-40 -79 0
-40 -3 0
-40 -80 0
-40 -4 0
-40 -81 0
-40 -5 0
-40 -82 0
-40 -6 0
-40 -83 0
-40 -7 0
-40 -9 0
-40 -86 0
-40 -10 0
-41 -2 0
-41 -79 0
-41 -3 0
-41 -80 0
-41 -4 0
-41 -81 0
-41 -5 0
-41 -82 0
-41 -83 0
-41 -84 0
-41 -8 0
-41 -85 0
-41 -86 0
-41 -10 0
-41 -87 0
-41 -11 0
-41 -88 0
-42 -1 0
-42 -78 0
-42 -2 0
-42 -79 0
-42 -4 0
-42 -5 0
-42 -82 0
-42 -6 0
-42 -7 0
-42 -84 0
-42 -8 0
-42 -85 0
-42 -9 0
-42 -87 0
-42 -11 0
-42 -88 0
-43 -78 0
-43 -2 0
-43 -79 0
-43 -3 0
-43 -4 0
-43 -5 0
-43 -82 0
-43 -84 0
-43 -8 0
-43 -85 0
-43 -10 0
-43 -87 0
-43 -11 0
-43 -88 0
-44 -1 0
-44 -78 0
-44 -2 0
-44 -79 0
-44 -80 0
-44 -4 0
-44 -81 0
-44 -5 0
-44 -82 0
-44 -6 0
-44 -83 0
-44 -7 0
-44 -8 0
-44 -9 0
-44 -86 0
-44 -11 0
-45 -89 0
-45 -57 0
-45 -90 0
-45 -58 0
-45 -59 0
-45 -60 0
-45 -93 0
-45 -95 0
-45 -63 0
-45 -96 0
-45 -65 0
-45 -98 0
-45 -66 0
-45 -99 0
-46 -56 0
-46 -89 0
-46 -90 0
-46 -58 0
-46 -91 0
-46 -59 0
-46 -92 0
-46 -60 0
-46 -93 0
-46 -61 0
-46 -94 0
-46 -62 0
-46 -64 0
-46 -97 0
-46 -65 0
-47 -56 0
-47 -89 0
-47 -57 0
-47 -91 0
-47 -59 0
-47 -92 0
-47 -60 0
-47 -61 0
-47 -94 0
-47 -62 0
-47 -95 0
-47 -63 0
-47 -96 0
-47 -64 0
-47 -97 0
-47 -98 0
-47 -66 0
-47 -99 0
-48 -56 0
-48 -89 0
-48 -57 0
-48 -58 0
-48 -91 0
-48 -92 0
-48 -61 0
-48 -94 0
-48 -62 0
-48 -95 0
-48 -63 0
-48 -96 0
-48 -64 0
-48 -97 0
-48 -65 0
-48 -98 0
-48 -66 0
-48 -99 0
-49 -56 0
-49 -89 0
-49 -57 0
-49 -90 0
-49 -58 0
-49 -91 0
-49 -92 0
-49 -93 0
-49 -61 0
-49 -94 0
-49 -62 0
-49 -63 0
-49 -64 0
-49 -97 0
-49 -65 0
-49 -66 0
-50 -56 0
-50 -89 0
-50 -90 0
-50 -58 0
-50 -59 0
-50 -60 0
-50 -93 0
-50 -61 0
-50 -62 0
-50 -95 0
-50 -96 0
-50 -64 0
-50 -65 0
-50 -98 0
-50 -99 0
-51 -56 0
-51 -89 0
-51 -90 0
-51 -58 0
-51 -91 0
-51 -59 0
-51 -92 0
-51 -60 0
-51 -93 0
-51 -61 0
-51 -94 0
-51 -62 0
-51 -64 0
-51 -97 0
-51 -65 0
-52 -57 0
-52 -90 0
-52 -58 0
-52 -91 0
-52 -59 0
-52 -92 0
-52 -60 0
-52 -93 0
-52 -94 0
-52 -95 0
-52 -63 0
-52 -96 0
-52 -97 0
-52 -65 0
-52 -98 0
-52 -66 0
-52 -99 0
-53 -56 0
-53 -89 0
-53 -57 0
-53 -90 0
-53 -59 0
-53 -60 0
-53 -93 0
-53 -61 0
-53 -62 0
-53 -95 0
-53 -63 0
-53 -96 0
-53 -64 0
-53 -98 0
-53 -66 0
-53 -99 0
-54 -89 0
-54 -57 0
-54 -90 0
-54 -58 0
-54 -59 0
-54 -60 0
-54 -93 0
-54 -95 0
-54 -63 0
-54 -96 0
-54 -65 0
-54 -98 0
-54 -66 0
-54 -99 0
-55 -56 0
-55 -89 0
-55 -57 0
-55 -90 0
-55 -91 0
-55 -59 0
-55 -92 0
-55 -60 0
-55 -93 0
-55 -61 0
-55 -94 0
-55 -62 0
-55 -63 0
-55 -64 0
-55 -97 0
-55 -66 0
-56 -100 0
-56 -68 0
-56 -101 0
-56 -69 0
-56 -70 0
-56 -71 0
-56 -104 0
-56 -106 0
-56 -74 0
-56 -107 0
-56 -76 0
-56 -109 0
-56 -77 0
-56 -110 0
-57 -67 0
-57 -100 0
-57 -101 0
-57 -69 0
-57 -102 0
-57 -70 0
-57 -103 0
-57 -71 0
-57 -104 0
-57 -72 0
-57 -105 0
-57 -73 0
-57 -75 0
-57 -108 0
-57 -76 0
-58 -67 0
-58 -100 0
-58 -68 0
-58 -102 0
-58 -70 0
-58 -103 0
-58 -71 0
-58 -72 0
-58 -105 0
-58 -73 0
-58 -106 0
-58 -74 0
-58 -107 0
-58 -75 0
-58 -108 0
-58 -109 0
-58 -77 0
-58 -110 0
-59 -67 0
-59 -100 0
-59 -68 0
-59 -69 0
-59 -102 0
-59 -103 0
-59 -72 0
-59 -105 0
-59 -73 0
-59 -106 0
-59 -74 0
-59 -107 0
-59 -75 0
-59 -108 0
-59 -76 0
-59 -109 0
-59 -77 0
-59 -110 0
-60 -67 0
-60 -100 0
-60 -68 0
-60 -101 0
-60 -69 0
-60 -102 0
-60 -103 0
-60 -104 0
-60 -72 0
-60 -105 0
-60 -73 0
-60 -74 0
-60 -75 0
-60 -108 0
-60 -76 0
-60 -77 0
-61 -67 0
-61 -100 0
-61 -101 0
-61 -69 0
-61 -70 0
-61 -71 0
-61 -104 0
-61 -72 0
-61 -73 0
-61 -106 0
-61 -107 0
-61 -75 0
-61 -76 0
-61 -109 0
-61 -110 0
-62 -67 0
-62 -100 0
-62 -101 0
-62 -69 0
-62 -102 0
-62 -70 0
-62 -103 0
-62 -71 0
-62 -104 0
-62 -72 0
-62 -105 0
-62 -73 0
-62 -75 0
-62 -108 0
-62 -76 0
-63 -68 0
-63 -101 0
-63 -69 0
-63 -102 0
-63 -70 0
-63 -103 0
-63 -71 0
-63 -104 0
-63 -105 0
-63 -106 0
-63 -74 0
-63 -107 0
-63 -108 0
-63 -76 0
-63 -109 0
-63 -77 0
-63 -110 0
-64 -67 0
-64 -100 0
-64 -68 0
-64 -101 0
-64 -70 0
-64 -71 0
-64 -104 0
-64 -72 0
-64 -73 0
-64 -106 0
-64 -74 0
-64 -107 0
-64 -75 0
-64 -109 0
-64 -77 0
-64 -110 0
-65 -100 0
-65 -68 0
-65 -101 0
-65 -69 0
-65 -70 0
-65 -71 0
-65 -104 0
-65 -106 0
-65 -74 0
-65 -107 0
-65 -76 0
-65 -109 0
-65 -77 0
-65 -110 0
-66 -67 0
-66 -100 0
-66 -68 0
-66 -101 0
-66 -102 0
-66 -70 0
-66 -103 0
-66 -71 0
-66 -104 0
-66 -72 0
-66 -105 0
-66 -73 0
-66 -74 0
-66 -75 0
-66 -108 0
-66 -77 0
-67 -111 0
-67 -79 0
-67 -112 0
-67 -80 0
-67 -81 0
-67 -82 0
-67 -115 0
-67 -117 0
-67 -85 0
-67 -118 0
-67 -87 0
-67 -120 0
-67 -88 0
-67 -121 0
-68 -78 0
-68 -111 0
-68 -112 0
-68 -80 0
-68 -113 0
-68 -81 0
-68 -114 0
-68 -82 0
-68 -115 0
-68 -83 0
-68 -116 0
-68 -84 0
-68 -86 0
-68 -119 0
-68 -87 0
-69 -78 0
-69 -111 0
-69 -79 0
-69 -113 0
-69 -81 0
-69 -114 0
-69 -82 0
-69 -83 0
-69 -116 0
-69 -84 0
-69 -117 0
-69 -85 0
-69 -118 0
-69 -86 0
-69 -119 0
-69 -120 0
-69 -88 0
-69 -121 0
-70 -78 0
-70 -111 0
-70 -79 0
-70 -80 0
-70 -113 0
-70 -114 0
-70 -83 0
-70 -116 0
-70 -84 0
-70 -117 0
-70 -85 0
-70 -118 0
-70 -86 0
-70 -119 0
-70 -87 0
-70 -120 0
-70 -88 0
-70 -121 0
-71 -78 0
-71 -111 0
-71 -79 0
-71 -112 0
-71 -80 0
-71 -113 0
-71 -114 0
-71 -115 0
-71 -83 0
-71 -116 0
-71 -84 0
-71 -85 0
-71 -86 0
-71 -119 0
-71 -87 0
-71 -88 0
-72 -78 0
-72 -111 0
-72 -112 0
-72 -80 0
-72 -81 0
-72 -82 0
-72 -115 0
-72 -83 0
-72 -84 0
-72 -117 0
-72 -118 0
-72 -86 0
-72 -87 0
-72 -120 0
-72 -121 0
-73 -78 0
-73 -111 0
-73 -112 0
-73 -80 0
-73 -113 0
-73 -81 0
-73 -114 0
-73 -82 0
-73 -115 0
-73 -83 0
-73 -116 0
-73 -84 0
-73 -86 0
-73 -119 0
-73 -87 0
-74 -79 0
-74 -112 0
-74 -80 0
-74 -113 0
-74 -81 0
-74 -114 0
-74 -82 0
-74 -115 0
-74 -116 0
-74 -117 0
-74 -85 0
-74 -118 0
-74 -119 0
-74 -87 0
-74 -120 0
-74 -88 0
-74 -121 0
-75 -78 0
-75 -111 0
-75 -79 0
-75 -112 0
-75 -81 0
-75 -82 0
-75 -115 0
-75 -83 0
-75 -84 0
-75 -117 0
-75 -85 0
-75 -118 0
-75 -86 0
-75 -120 0
-75 -88 0
-75 -121 0
-76 -111 0
-76 -79 0
-76 -112 0
-76 -80 0
-76 -81 0
-76 -82 0
-76 -115 0
-76 -117 0
-76 -85 0
-76 -118 0
-76 -87 0
-76 -120 0
-76 -88 0
-76 -121 0
-77 -78 0
-77 -111 0
-77 -79 0
-77 -112 0
-77 -113 0
-77 -81 0
-77 -114 0
-77 -82 0
-77 -115 0
-77 -83 0
-77 -116 0
-77 -84 0
-77 -85 0
-77 -86 0
-77 -119 0
-77 -88 0
-78 -122 0
-78 -46 0
-78 -123 0
-78 -47 0
-78 -48 0
-78 -49 0
-78 -126 0
-78 -128 0
-78 -52 0
-78 -129 0
-78 -54 0
-78 -131 0
-78 -55 0
-78 -132 0
-79 -45 0
-79 -122 0
-79 -123 0
-79 -47 0
-79 -124 0
-79 -48 0
-79 -125 0
-79 -49 0
-79 -126 0
-79 -50 0
-79 -127 0
-79 -51 0
-79 -53 0
-79 -130 0
-79 -54 0
-80 -45 0
-80 -122 0
-80 -46 0
-80 -124 0
-80 -48 0
-80 -125 0
-80 -49 0
-80 -50 0
-80 -127 0
-80 -51 0
-80 -128 0
-80 -52 0
-80 -129 0
-80 -53 0
-80 -130 0
-80 -131 0
-80 -55 0
-80 -132 0
-81 -45 0
-81 -122 0
-81 -46 0
-81 -47 0
-81 -124 0
-81 -125 0
-81 -50 0
-81 -127 0
-81 -51 0
-81 -128 0
-81 -52 0
-81 -129 0
-81 -53 0
-81 -130 0
-81 -54 0
-81 -131 0
-81 -55 0
-81 -132 0
-82 -45 0
-82 -122 0
-82 -46 0
-82 -123 0
-82 -47 0
-82 -124 0
-82 -125 0
-82 -126 0
-82 -50 0
-82 -127 0
-82 -51 0
-82 -52 0
-82 -53 0
-82 -130 0
-82 -54 0
-82 -55 0
-83 -45 0
-83 -122 0
-83 -123 0
-83 -47 0
-83 -48 0
-83 -49 0
-83 -126 0
-83 -50 0
-83 -51 0
-83 -128 0
-83 -129 0
-83 -53 0
-83 -54 0
-83 -131 0
-83 -132 0
-84 -45 0
-84 -122 0
-84 -123 0
-84 -47 0
-84 -124 0
-84 -48 0
-84 -125 0
-84 -49 0
-84 -126 0
-84 -50 0
-84 -127 0
-84 -51 0
-84 -53 0
-84 -130 0
-84 -54 0
-85 -46 0
-85 -123 0
-85 -47 0
-85 -124 0
-85 -48 0
-85 -125 0
-85 -49 0
-85 -126 0
-85 -127 0
-85 -128 0
-85 -52 0
-85 -129 0
-85 -130 0
-85 -54 0
-85 -131 0
-85 -55 0
-85 -132 0
-86 -45 0
-86 -122 0
-86 -46 0
-86 -123 0
-86 -48 0
-86 -49 0
-86 -126 0
-86 -50 0
-86 -51 0
-86 -128 0
-86 -52 0
-86 -129 0
-86 -53 0
-86 -131 0
-86 -55 0
-86 -132 0
-87 -122 0
-87 -46 0
-87 -123 0
-87 -47 0
-87 -48 0
-87 -49 0
-87 -126 0
-87 -128 0
-87 -52 0
-87 -129 0
-87 -54 0
-87 -131 0
-87 -55 0
-87 -132 0
-88 -45 0
-88 -122 0
-88 -46 0
-88 -123 0
-88 -124 0
-88 -48 0
-88 -125 0
-88 -49 0
-88 -126 0
-88 -50 0
-88 -127 0
-88 -51 0
-88 -52 0
-88 -53 0
-88 -130 0
-88 -55 0
-89 -1 0
-89 -101 0
-89 -2 0
-89 -102 0
-89 -103 0
-89 -104 0
-89 -5 0
-89 -7 0
-89 -107 0
-89 -8 0
-89 -109 0
-89 -10 0
-89 -110 0
-89 -11 0
-90 -100 0
-90 -1 0
-90 -2 0
-90 -102 0
-90 -3 0
-90 -103 0
-90 -4 0
-90 -104 0
-90 -5 0
-90 -105 0
-90 -6 0
-90 -106 0
-90 -108 0
-90 -9 0
-90 -109 0
-91 -100 0
-91 -1 0
-91 -101 0
-91 -3 0
-91 -103 0
-91 -4 0
-91 -104 0
-91 -105 0
-91 -6 0
-91 -106 0
-91 -7 0
-91 -107 0
-91 -8 0
-91 -108 0
-91 -9 0
-91 -10 0
-91 -110 0
-91 -11 0
-92 -100 0
-92 -1 0
-92 -101 0
-92 -102 0
-92 -3 0
-92 -4 0
-92 -105 0
-92 -6 0
-92 -106 0
-92 -7 0
-92 -107 0
-92 -8 0
-92 -108 0
-92 -9 0
-92 -109 0
-92 -10 0
-92 -110 0
-92 -11 0
-93 -100 0
-93 -1 0
-93 -101 0
-93 -2 0
-93 -102 0
-93 -3 0
-93 -4 0
-93 -5 0
-93 -105 0
-93 -6 0
-93 -106 0
-93 -107 0
-93 -108 0
-93 -9 0
-93 -109 0
-93 -110 0
-94 -100 0
-94 -1 0
-94 -2 0
-94 -102 0
-94 -103 0
-94 -104 0
-94 -5 0
-94 -105 0
-94 -106 0
-94 -7 0
-94 -8 0
-94 -108 0
-94 -109 0
-94 -10 0
-94 -11 0
-95 -100 0
-95 -1 0
-95 -2 0
-95 -102 0
-95 -3 0
-95 -103 0
-95 -4 0
-95 -104 0
-95 -5 0
-95 -105 0
-95 -6 0
-95 -106 0
-95 -108 0
-95 -9 0
-95 -109 0
-96 -101 0
-96 -2 0
-96 -102 0
-96 -3 0
-96 -103 0
-96 -4 0
-96 -104 0
-96 -5 0
-96 -6 0
-96 -7 0
-96 -107 0
-96 -8 0
-96 -9 0
-96 -109 0
-96 -10 0
-96 -110 0
-96 -11 0
-97 -100 0
-97 -1 0
-97 -101 0
-97 -2 0
-97 -103 0
-97 -104 0
-97 -5 0
-97 -105 0
-97 -106 0
-97 -7 0
-97 -107 0
-97 -8 0
-97 -108 0
-97 -10 0
-97 -110 0
-97 -11 0
-98 -1 0
-98 -101 0
-98 -2 0
-98 -102 0
-98 -103 0
-98 -104 0
-98 -5 0
-98 -7 0
-98 -107 0
-98 -8 0
-98 -109 0
-98 -10 0
-98 -110 0
-98 -11 0
-99 -100 0
-99 -1 0
-99 -101 0
-99 -2 0
-99 -3 0
-99 -103 0
-99 -4 0
-99 -104 0
-99 -5 0
-99 -105 0
-99 -6 0
-99 -106 0
-99 -107 0
-99 -108 0
-99 -9 0
-99 -110 0
-100 -12 0
-100 -112 0
-100 -13 0
-100 -113 0
-100 -114 0
-100 -115 0
-100 -16 0
-100 -18 0
-100 -118 0
-100 -19 0
-100 -120 0
-100 -21 0
-100 -121 0
-100 -22 0
-101 -111 0
-101 -12 0
-101 -13 0
-101 -113 0
-101 -14 0
-101 -114 0
-101 -15 0
-101 -115 0
-101 -16 0
-101 -116 0
-101 -17 0
-101 -117 0
-101 -119 0
-101 -20 0
-101 -120 0
-102 -111 0
-102 -12 0
-102 -112 0
-102 -14 0
-102 -114 0
-102 -15 0
-102 -115 0
-102 -116 0
-102 -17 0
-102 -117 0
-102 -18 0
-102 -118 0
-102 -19 0
-102 -119 0
-102 -20 0
-102 -21 0
-102 -121 0
-102 -22 0
-103 -111 0
-103 -12 0
-103 -112 0
-103 -113 0
-103 -14 0
-103 -15 0
-103 -116 0
-103 -17 0
-103 -117 0
-103 -18 0
-103 -118 0
-103 -19 0
-103 -119 0
-103 -20 0
-103 -120 0
-103 -21 0
-103 -121 0
-103 -22 0
-104 -111 0
-104 -12 0
-104 -112 0
-104 -13 0
-104 -113 0
-104 -14 0
-104 -15 0
-104 -16 0
-104 -116 0
-104 -17 0
-104 -117 0
-104 -118 0
-104 -119 0
-104 -20 0
-104 -120 0
-104 -121 0
-105 -111 0
-105 -12 0
-105 -13 0
-105 -113 0
-105 -114 0
-105 -115 0
-105 -16 0
-105 -116 0
-105 -117 0
-105 -18 0
-105 -19 0
-105 -119 0
-105 -120 0
-105 -21 0
-105 -22 0
-106 -111 0
-106 -12 0
-106 -13 0
-106 -113 0
-106 -14 0
-106 -114 0
-106 -15 0
-106 -115 0
-106 -16 0
-106 -116 0
-106 -17 0
-106 -117 0
-106 -119 0
-106 -20 0
-106 -120 0
-107 -112 0
-107 -13 0
-107 -113 0
-107 -14 0
-107 -114 0
-107 -15 0
-107 -115 0
-107 -16 0
-107 -17 0
-107 -18 0
-107 -118 0
-107 -19 0
-107 -20 0
-107 -120 0
-107 -21 0
-107 -121 0
-107 -22 0
-108 -111 0
-108 -12 0
-108 -112 0
-108 -13 0
-108 -114 0
-108 -115 0
-108 -16 0
-108 -116 0
-108 -117 0
-108 -18 0
-108 -118 0
-108 -19 0
-108 -119 0
-108 -21 0
-108 -121 0
-108 -22 0
-109 -12 0
-109 -112 0
-109 -13 0
-109 -113 0
-109 -114 0
-109 -115 0
-109 -16 0
-109 -18 0
-109 -118 0
-109 -19 0
-109 -120 0
-109 -21 0
-109 -121 0
-109 -22 0
-110 -111 0
-110 -12 0
-110 -112 0
-110 -13 0
-110 -14 0
-110 -114 0
-110 -15 0
-110 -115 0
-110 -16 0
-110 -116 0
-110 -17 0
-110 -117 0
-110 -118 0
-110 -119 0
-110 -20 0
-110 -121 0
-111 -23 0
-111 -123 0
-111 -24 0
-111 -124 0
-111 -125 0
-111 -126 0
-111 -27 0
-111 -29 0
-111 -129 0
-111 -30 0
-111 -131 0
-111 -32 0
-111 -132 0
-111 -33 0
-112 -122 0
-112 -23 0
-112 -24 0
-112 -124 0
-112 -25 0
-112 -125 0
-112 -26 0
-112 -126 0
-112 -27 0
-112 -127 0
-112 -28 0
-112 -128 0
-112 -130 0
-112 -31 0
-112 -131 0
-113 -122 0
-113 -23 0
-113 -123 0
-113 -25 0
-113 -125 0
-113 -26 0
-113 -126 0
-113 -127 0
-113 -28 0
-113 -128 0
-113 -29 0
-113 -129 0
-113 -30 0
-113 -130 0
-113 -31 0
-113 -32 0
-113 -132 0
-113 -33 0
-114 -122 0
-114 -23 0
-114 -123 0
-114 -124 0
-114 -25 0
-114 -26 0
-114 -127 0
-114 -28 0
-114 -128 0
-114 -29 0
-114 -129 0
-114 -30 0
-114 -130 0
-114 -31 0
-114 -131 0
-114 -32 0
-114 -132 0
-114 -33 0
-115 -122 0
-115 -23 0
-115 -123 0
-115 -24 0
-115 -124 0
-115 -25 0
-115 -26 0
-115 -27 0
-115 -127 0
-115 -28 0
-115 -128 0
-115 -129 0
-115 -130 0
-115 -31 0
-115 -131 0
-115 -132 0
-116 -122 0
-116 -23 0
-116 -24 0
-116 -124 0
-116 -125 0
-116 -126 0
-116 -27 0
-116 -127 0
-116 -128 0
-116 -29 0
-116 -30 0
-116 -130 0
-116 -131 0
-116 -32 0
-116 -33 0
-117 -122 0
-117 -23 0
-117 -24 0
-117 -124 0
-117 -25 0
-117 -125 0
-117 -26 0
-117 -126 0
-117 -27 0
-117 -127 0
-117 -28 0
-117 -128 0
-117 -130 0
-117 -31 0
-117 -131 0
-118 -123 0
-118 -24 0
-118 -124 0
-118 -25 0
-118 -125 0
-118 -26 0
-118 -126 0
-118 -27 0
-118 -28 0
-118 -29 0
-118 -129 0
-118 -30 0
-118 -31 0
-118 -131 0
-118 -32 0
-118 -132 0
-118 -33 0
-119 -122 0
-119 -23 0
-119 -123 0
-119 -24 0
-119 -125 0
-119 -126 0
-119 -27 0
-119 -127 0
-119 -128 0
-119 -29 0
-119 -129 0
-119 -30 0
-119 -130 0
-119 -32 0
-119 -132 0
-119 -33 0
-120 -23 0
-120 -123 0
-120 -24 0
-120 -124 0
-120 -125 0
-120 -126 0
-120 -27 0
-120 -29 0
-120 -129 0
-120 -30 0
-120 -131 0
-120 -32 0
-120 -132 0
-120 -33 0
-121 -122 0
-121 -23 0
-121 -123 0
-121 -24 0
-121 -25 0
-121 -125 0
-121 -26 0
-121 -126 0
-121 -27 0
-121 -127 0
-121 -28 0
-121 -128 0
-121 -129 0
-121 -130 0
-121 -31 0
-121 -132 0
-122 -34 0
-122 -90 0
-122 -35 0
-122 -91 0
-122 -92 0
-122 -93 0
-122 -38 0
-122 -40 0
-122 -96 0
-122 -41 0
-122 -98 0
-122 -43 0
-122 -99 0
-122 -44 0
-123 -89 0
-123 -34 0
-123 -35 0
-123 -91 0
-123 -36 0
-123 -92 0
-123 -37 0
-123 -93 0
-123 -38 0
-123 -94 0
-123 -39 0
-123 -95 0
-123 -97 0
-123 -42 0
-123 -98 0
-124 -89 0
-124 -34 0
-124 -90 0
-124 -36 0
-124 -92 0
-124 -37 0
-124 -93 0
-124 -94 0
-124 -39 0
-124 -95 0
-124 -40 0
-124 -96 0
-124 -41 0
-124 -97 0
-124 -42 0
-124 -43 0
-124 -99 0
-124 -44 0
-125 -89 0
-125 -34 0
-125 -90 0
-125 -91 0
-125 -36 0
-125 -37 0
-125 -94 0
-125 -39 0
-125 -95 0
-125 -40 0
-125 -96 0
-125 -41 0
-125 -97 0
-125 -42 0
-125 -98 0
-125 -43 0
-125 -99 0
-125 -44 0
-126 -89 0
-126 -34 0
-126 -90 0
-126 -35 0
-126 -91 0
-126 -36 0
-126 -37 0
-126 -38 0
-126 -94 0
-126 -39 0
-126 -95 0
-126 -96 0
-126 -97 0
-126 -42 0
-126 -98 0
-126 -99 0
-127 -89 0
-127 -34 0
-127 -35 0
-127 -91 0
-127 -92 0
-127 -93 0
-127 -38 0
-127 -94 0
-127 -95 0
-127 -40 0
-127 -41 0
-127 -97 0
-127 -98 0
-127 -43 0
-127 -44 0
-128 -89 0
-128 -34 0
-128 -35 0
-128 -91 0
-128 -36 0
-128 -92 0
-128 -37 0
-128 -93 0
-128 -38 0
-128 -94 0
-128 -39 0
-128 -95 0
-128 -97 0
-128 -42 0
-128 -98 0
-129 -90 0
-129 -35 0
-129 -91 0
-129 -36 0
-129 -92 0
-129 -37 0
-129 -93 0
-129 -38 0
-129 -39 0
-129 -40 0
-129 -96 0
-129 -41 0
-129 -42 0
-129 -98 0
-129 -43 0
-129 -99 0
-129 -44 0
-130 -89 0
-130 -34 0
-130 -90 0
-130 -35 0
-130 -92 0
-130 -93 0
-130 -38 0
-130 -94 0
-130 -95 0
-130 -40 0
-130 -96 0
-130 -41 0
-130 -97 0
-130 -43 0
-130 -99 0
-130 -44 0
-131 -34 0
-131 -90 0
-131 -35 0
-131 -91 0
-131 -92 0
-131 -93 0
-131 -38 0
-131 -40 0
-131 -96 0
-131 -41 0
-131 -98 0
-131 -43 0
-131 -99 0
-131 -44 0
-132 -89 0
-132 -34 0
-132 -90 0
-132 -35 0
-132 -36 0
-132 -92 0
-132 -37 0
-132 -93 0
-132 -38 0
-132 -94 0
-132 -39 0
-132 -95 0
-132 -96 0
-132 -97 0
-132 -42 0
-132 -99 0
