p cnf 88 1840
1 2 3 4 5 6 7 8 9 10 11 0
-1 -2 0
-1 -3 0
-1 -4 0
-1 -5 0
-1 -6 0
-1 -7 0
-1 -8 0
-1 -9 0
-1 -10 0
-1 -11 0
-2 -3 0
-2 -4 0
-2 -5 0
-2 -6 0
-2 -7 0
-2 -8 0
-2 -9 0
-2 -10 0
-2 -11 0
-3 -4 0
-3 -5 0
-3 -6 0
-3 -7 0
-3 -8 0
-3 -9 0
-3 -10 0
-3 -11 0
-4 -5 0
-4 -6 0
-4 -7 0
-4 -8 0
-4 -9 0
-4 -10 0
-4 -11 0
-5 -6 0
-5 -7 0
-5 -8 0
-5 -9 0
-5 -10 0
-5 -11 0
-6 -7 0
-6 -8 0
-6 -9 0
-6 -10 0
-6 -11 0
-7 -8 0
-7 -9 0
-7 -10 0
-7 -11 0
-8 -9 0
-8 -10 0
-8 -11 0
-9 -10 0
-9 -11 0
-10 -11 0
12 13 14 15 16 17 18 19 20 21 22 0
-12 -13 0
-12 -14 0
-12 -15 0
-12 -16 0
-12 -17 0
-12 -18 0
-12 -19 0
-12 -20 0
-12 -21 0
-12 -22 0
-13 -14 0
-13 -15 0
-13 -16 0
-13 -17 0
-13 -18 0
-13 -19 0
-13 -20 0
-13 -21 0
-13 -22 0
-14 -15 0
-14 -16 0
-14 -17 0
-14 -18 0
-14 -19 0
-14 -20 0
-14 -21 0
-14 -22 0
-15 -16 0
-15 -17 0
-15 -18 0
-15 -19 0
-15 -20 0
-15 -21 0
-15 -22 0
-16 -17 0
-16 -18 0
-16 -19 0
-16 -20 0
-16 -21 0
-16 -22 0
-17 -18 0
-17 -19 0
-17 -20 0
-17 -21 0
-17 -22 0
-18 -19 0
-18 -20 0
-18 -21 0
-18 -22 0
-19 -20 0
-19 -21 0
-19 -22 0
-20 -21 0
-20 -22 0
-21 -22 0
23 24 25 26 27 28 29 30 31 32 33 0
-23 -24 0
-23 -25 0
-23 -26 0
-23 -27 0
-23 -28 0
-23 -29 0
-23 -30 0
-23 -31 0
-23 -32 0
-23 -33 0
-24 -25 0
-24 -26 0
-24 -27 0
-24 -28 0
-24 -29 0
-24 -30 0
-24 -31 0
-24 -32 0
-24 -33 0
-25 -26 0
-25 -27 0
-25 -28 0
-25 -29 0
-25 -30 0
-25 -31 0
-25 -32 0
-25 -33 0
-26 -27 0
-26 -28 0
-26 -29 0
-26 -30 0
-26 -31 0
-26 -32 0
-26 -33 0
-27 -28 0
-27 -29 0
-27 -30 0
-27 -31 0
-27 -32 0
-27 -33 0
-28 -29 0
-28 -30 0
-28 -31 0
-28 -32 0
-28 -33 0
-29 -30 0
-29 -31 0
-29 -32 0
-29 -33 0
-30 -31 0
-30 -32 0
-30 -33 0
-31 -32 0
-31 -33 0
-32 -33 0
34 35 36 37 38 39 40 41 42 43 44 0
-34 -35 0
-34 -36 0
-34 -37 0
-34 -38 0
-34 -39 0
-34 -40 0
-34 -41 0
-34 -42 0
-34 -43 0
-34 -44 0
-35 -36 0
-35 -37 0
-35 -38 0
-35 -39 0
-35 -40 0
-35 -41 0
-35 -42 0
-35 -43 0
-35 -44 0
-36 -37 0
-36 -38 0
-36 -39 0
-36 -40 0
-36 -41 0
-36 -42 0
-36 -43 0
-36 -44 0
-37 -38 0
-37 -39 0
-37 -40 0
-37 -41 0
-37 -42 0
-37 -43 0
-37 -44 0
-38 -39 0
-38 -40 0
-38 -41 0
-38 -42 0
-38 -43 0
-38 -44 0
-39 -40 0
-39 -41 0
-39 -42 0
-39 -43 0
-39 -44 0
-40 -41 0
-40 -42 0
-40 -43 0
-40 -44 0
-41 -42 0
-41 -43 0
-41 -44 0
-42 -43 0
-42 -44 0
-43 -44 0
45 46 47 48 49 50 51 52 53 54 55 0
-45 -46 0
-45 -47 0
-45 -48 0
-45 -49 0
-45 -50 0
-45 -51 0
-45 -52 0
-45 -53 0
-45 -54 0
-45 -55 0
-46 -47 0
-46 -48 0
-46 -49 0
-46 -50 0
-46 -51 0
-46 -52 0
-46 -53 0
-46 -54 0
-46 -55 0
-47 -48 0
-47 -49 0
-47 -50 0
-47 -51 0
-47 -52 0
-47 -53 0
-47 -54 0
-47 -55 0
-48 -49 0
-48 -50 0
-48 -51 0
-48 -52 0
-48 -53 0
-48 -54 0
-48 -55 0
-49 -50 0
-49 -51 0
-49 -52 0
-49 -53 0
-49 -54 0
-49 -55 0
-50 -51 0
-50 -52 0
-50 -53 0
-50 -54 0
-50 -55 0
-51 -52 0
-51 -53 0
-51 -54 0
-51 -55 0
-52 -53 0
-52 -54 0
-52 -55 0
-53 -54 0
-53 -55 0
-54 -55 0
56 57 58 59 60 61 62 63 64 65 66 0
-56 -57 0
-56 -58 0
-56 -59 0
-56 -60 0
-56 -61 0
-56 -62 0
-56 -63 0
-56 -64 0
-56 -65 0
-56 -66 0
-57 -58 0
-57 -59 0
-57 -60 0
-57 -61 0
-57 -62 0
-57 -63 0
-57 -64 0
-57 -65 0
-57 -66 0
-58 -59 0
-58 -60 0
-58 -61 0
-58 -62 0
-58 -63 0
-58 -64 0
-58 -65 0
-58 -66 0
-59 -60 0
-59 -61 0
-59 -62 0
-59 -63 0
-59 -64 0
-59 -65 0
-59 -66 0
-60 -61 0
-60 -62 0
-60 -63 0
-60 -64 0
-60 -65 0
-60 -66 0
-61 -62 0
-61 -63 0
-61 -64 0
-61 -65 0
-61 -66 0
-62 -63 0
-62 -64 0
-62 -65 0
-62 -66 0
-63 -64 0
-63 -65 0
-63 -66 0
-64 -65 0
-64 -66 0
-65 -66 0
67 68 69 70 71 72 73 74 75 76 77 0
-67 -68 0
-67 -69 0
-67 -70 0
-67 -71 0
-67 -72 0
-67 -73 0
-67 -74 0
-67 -75 0
-67 -76 0
-67 -77 0
-68 -69 0
-68 -70 0
-68 -71 0
-68 -72 0
-68 -73 0
-68 -74 0
-68 -75 0
-68 -76 0
-68 -77 0
-69 -70 0
-69 -71 0
-69 -72 0
-69 -73 0
-69 -74 0
-69 -75 0
-69 -76 0
-69 -77 0
-70 -71 0
-70 -72 0
-70 -73 0
-70 -74 0
-70 -75 0
-70 -76 0
-70 -77 0
-71 -72 0
-71 -73 0
-71 -74 0
-71 -75 0
-71 -76 0
-71 -77 0
-72 -73 0
-72 -74 0
-72 -75 0
-72 -76 0
-72 -77 0
-73 -74 0
-73 -75 0
-73 -76 0
-73 -77 0
-74 -75 0
-74 -76 0
-74 -77 0
-75 -76 0
-75 -77 0
-76 -77 0
78 79 80 81 82 83 84 85 86 87 88 0
-78 -79 0
-78 -80 0
-78 -81 0
-78 -82 0
-78 -83 0
-78 -84 0
-78 -85 0
-78 -86 0
-78 -87 0
-78 -88 0
-79 -80 0
-79 -81 0
-79 -82 0
-79 -83 0
-79 -84 0
-79 -85 0
-79 -86 0
-79 -87 0
-79 -88 0
-80 -81 0
-80 -82 0
-80 -83 0
-80 -84 0
-80 -85 0
-80 -86 0
-80 -87 0
-80 -88 0
-81 -82 0
-81 -83 0
-81 -84 0
-81 -85 0
-81 -86 0
-81 -87 0
-81 -88 0
-82 -83 0
-82 -84 0
-82 -85 0
-82 -86 0
-82 -87 0
-82 -88 0
-83 -84 0
-83 -85 0
-83 -86 0
-83 -87 0
-83 -88 0
-84 -85 0
-84 -86 0
-84 -87 0
-84 -88 0
-85 -86 0
-85 -87 0
-85 -88 0
-86 -87 0
-86 -88 0
-87 -88 0
-1 -23 0
-1 -13 0
-1 -24 0
-1 -14 0
-1 -15 0
-1 -16 0
-1 -27 0
-1 -29 0
-1 -19 0
-1 -30 0
-1 -21 0
-1 -32 0
-1 -22 0
-1 -33 0
-2 -12 0
-2 -23 0
-2 -24 0
-2 -14 0
-2 -25 0
-2 -15 0
-2 -26 0
-2 -16 0
-2 -27 0
-2 -17 0
-2 -28 0
-2 -18 0
-2 -20 0
-2 -31 0
-2 -21 0
-3 -12 0
-3 -23 0
-3 -13 0
-3 -25 0
-3 -15 0
-3 -26 0
-3 -16 0
-3 -17 0
-3 -28 0
-3 -18 0
-3 -29 0
-3 -19 0
-3 -30 0
-3 -20 0
-3 -31 0
-3 -32 0
-3 -22 0
-3 -33 0
-4 -12 0
-4 -23 0
-4 -13 0
-4 -14 0
-4 -25 0
-4 -26 0
-4 -17 0
-4 -28 0
-4 -18 0
-4 -29 0
-4 -19 0
-4 -30 0
-4 -20 0
-4 -31 0
-4 -21 0
-4 -32 0
-4 -22 0
-4 -33 0
-5 -12 0
-5 -23 0
-5 -13 0
-5 -24 0
-5 -14 0
-5 -25 0
-5 -26 0
-5 -27 0
-5 -17 0
-5 -28 0
-5 -18 0
-5 -19 0
-5 -20 0
-5 -31 0
-5 -21 0
-5 -22 0
-6 -12 0
-6 -23 0
-6 -24 0
-6 -14 0
-6 -15 0
-6 -16 0
-6 -27 0
-6 -17 0
-6 -18 0
-6 -29 0
-6 -30 0
-6 -20 0
-6 -21 0
-6 -32 0
-6 -33 0
-7 -12 0
-7 -23 0
-7 -24 0
-7 -14 0
-7 -25 0
-7 -15 0
-7 -26 0
-7 -16 0
-7 -27 0
-7 -17 0
-7 -28 0
-7 -18 0
-7 -20 0
-7 -31 0
-7 -21 0
-8 -13 0
-8 -24 0
-8 -14 0
-8 -25 0
-8 -15 0
-8 -26 0
-8 -16 0
-8 -27 0
-8 -28 0
-8 -29 0
-8 -19 0
-8 -30 0
-8 -31 0
-8 -21 0
-8 -32 0
-8 -22 0
-8 -33 0
-9 -12 0
-9 -23 0
-9 -13 0
-9 -24 0
-9 -15 0
-9 -16 0
-9 -27 0
-9 -17 0
-9 -18 0
-9 -29 0
-9 -19 0
-9 -30 0
-9 -20 0
-9 -32 0
-9 -22 0
-9 -33 0
-10 -23 0
-10 -13 0
-10 -24 0
-10 -14 0
-10 -15 0
-10 -16 0
-10 -27 0
-10 -29 0
-10 -19 0
-10 -30 0
-10 -21 0
-10 -32 0
-10 -22 0
-10 -33 0
-11 -12 0
-11 -23 0
-11 -13 0
-11 -24 0
-11 -25 0
-11 -15 0
-11 -26 0
-11 -16 0
-11 -27 0
-11 -17 0
-11 -28 0
-11 -18 0
-11 -19 0
-11 -20 0
-11 -31 0
-11 -22 0
-12 -34 0
-12 -2 0
-12 -35 0
-12 -3 0
-12 -4 0
-12 -5 0
-12 -38 0
-12 -40 0
-12 -8 0
-12 -41 0
-12 -10 0
-12 -43 0
-12 -11 0
-12 -44 0
-13 -1 0
-13 -34 0
-13 -35 0
-13 -3 0
-13 -36 0
-13 -4 0
-13 -37 0
-13 -5 0
-13 -38 0
-13 -6 0
-13 -39 0
-13 -7 0
-13 -9 0
-13 -42 0
-13 -10 0
-14 -1 0
-14 -34 0
-14 -2 0
-14 -36 0
-14 -4 0
-14 -37 0
-14 -5 0
-14 -6 0
-14 -39 0
-14 -7 0
-14 -40 0
-14 -8 0
-14 -41 0
-14 -9 0
-14 -42 0
-14 -43 0
-14 -11 0
-14 -44 0
-15 -1 0
-15 -34 0
-15 -2 0
-15 -3 0
-15 -36 0
-15 -37 0
-15 -6 0
-15 -39 0
-15 -7 0
-15 -40 0
-15 -8 0
-15 -41 0
-15 -9 0
-15 -42 0
-15 -10 0
-15 -43 0
-15 -11 0
-15 -44 0
-16 -1 0
-16 -34 0
-16 -2 0
-16 -35 0
-16 -3 0
-16 -36 0
-16 -37 0
-16 -38 0
-16 -6 0
-16 -39 0
-16 -7 0
-16 -8 0
-16 -9 0
-16 -42 0
-16 -10 0
-16 -11 0
-17 -1 0
-17 -34 0
-17 -35 0
-17 -3 0
-17 -4 0
-17 -5 0
-17 -38 0
-17 -6 0
-17 -7 0
-17 -40 0
-17 -41 0
-17 -9 0
-17 -10 0
-17 -43 0
-17 -44 0
-18 -1 0
-18 -34 0
-18 -35 0
-18 -3 0
-18 -36 0
-18 -4 0
-18 -37 0
-18 -5 0
-18 -38 0
-18 -6 0
-18 -39 0
-18 -7 0
-18 -9 0
-18 -42 0
-18 -10 0
-19 -2 0
-19 -35 0
-19 -3 0
-19 -36 0
-19 -4 0
-19 -37 0
-19 -5 0
-19 -38 0
-19 -39 0
-19 -40 0
-19 -8 0
-19 -41 0
-19 -42 0
-19 -10 0
-19 -43 0
-19 -11 0
-19 -44 0
-20 -1 0
-20 -34 0
-20 -2 0
-20 -35 0
-20 -4 0
-20 -5 0
-20 -38 0
-20 -6 0
-20 -7 0
-20 -40 0
-20 -8 0
-20 -41 0
-20 -9 0
-20 -43 0
-20 -11 0
-20 -44 0
-21 -34 0
-21 -2 0
-21 -35 0
-21 -3 0
-21 -4 0
-21 -5 0
-21 -38 0
-21 -40 0
-21 -8 0
-21 -41 0
-21 -10 0
-21 -43 0
-21 -11 0
-21 -44 0
-22 -1 0
-22 -34 0
-22 -2 0
-22 -35 0
-22 -36 0
-22 -4 0
-22 -37 0
-22 -5 0
-22 -38 0
-22 -6 0
-22 -39 0
-22 -7 0
-22 -8 0
-22 -9 0
-22 -42 0
-22 -11 0
-23 -45 0
-23 -35 0
-23 -46 0
-23 -36 0
-23 -37 0
-23 -38 0
-23 -49 0
-23 -51 0
-23 -41 0
-23 -52 0
-23 -43 0
-23 -54 0
-23 -44 0
-23 -55 0
-24 -34 0
-24 -45 0
-24 -46 0
-24 -36 0
-24 -47 0
-24 -37 0
-24 -48 0
-24 -38 0
-24 -49 0
-24 -39 0
-24 -50 0
-24 -40 0
-24 -42 0
-24 -53 0
-24 -43 0
-25 -34 0
-25 -45 0
-25 -35 0
-25 -47 0
-25 -37 0
-25 -48 0
-25 -38 0
-25 -39 0
-25 -50 0
-25 -40 0
-25 -51 0
-25 -41 0
-25 -52 0
-25 -42 0
-25 -53 0
-25 -54 0
-25 -44 0
-25 -55 0
-26 -34 0
-26 -45 0
-26 -35 0
-26 -36 0
-26 -47 0
-26 -48 0
-26 -39 0
-26 -50 0
-26 -40 0
-26 -51 0
-26 -41 0
-26 -52 0
-26 -42 0
-26 -53 0
-26 -43 0
-26 -54 0
-26 -44 0
-26 -55 0
-27 -34 0
-27 -45 0
-27 -35 0
-27 -46 0
-27 -36 0
-27 -47 0
-27 -48 0
-27 -49 0
-27 -39 0
-27 -50 0
-27 -40 0
-27 -41 0
-27 -42 0
-27 -53 0
-27 -43 0
-27 -44 0
-28 -34 0
-28 -45 0
-28 -46 0
-28 -36 0
-28 -37 0
-28 -38 0
-28 -49 0
-28 -39 0
-28 -40 0
-28 -51 0
-28 -52 0
-28 -42 0
-28 -43 0
-28 -54 0
-28 -55 0
-29 -34 0
-29 -45 0
-29 -46 0
-29 -36 0
-29 -47 0
-29 -37 0
-29 -48 0
-29 -38 0
-29 -49 0
-29 -39 0
-29 -50 0
-29 -40 0
-29 -42 0
-29 -53 0
-29 -43 0
-30 -35 0
-30 -46 0
-30 -36 0
-30 -47 0
-30 -37 0
-30 -48 0
-30 -38 0
-30 -49 0
-30 -50 0
-30 -51 0
-30 -41 0
-30 -52 0
-30 -53 0
-30 -43 0
-30 -54 0
-30 -44 0
-30 -55 0
-31 -34 0
-31 -45 0
-31 -35 0
-31 -46 0
-31 -37 0
-31 -38 0
-31 -49 0
-31 -39 0
-31 -40 0
-31 -51 0
-31 -41 0
-31 -52 0
-31 -42 0
-31 -54 0
-31 -44 0
-31 -55 0
-32 -45 0
-32 -35 0
-32 -46 0
-32 -36 0
-32 -37 0
-32 -38 0
-32 -49 0
-32 -51 0
-32 -41 0
-32 -52 0
-32 -43 0
-32 -54 0
-32 -44 0
-32 -55 0
-33 -34 0
-33 -45 0
-33 -35 0
-33 -46 0
-33 -47 0
-33 -37 0
-33 -48 0
-33 -38 0
-33 -49 0
-33 -39 0
-33 -50 0
-33 -40 0
-33 -41 0
-33 -42 0
-33 -53 0
-33 -44 0
-34 -56 0
-34 -24 0
-34 -57 0
-34 -25 0
-34 -26 0
-34 -27 0
-34 -60 0
-34 -62 0
-34 -30 0
-34 -63 0
-34 -32 0
-34 -65 0
-34 -33 0
-34 -66 0
-35 -23 0
-35 -56 0
-35 -57 0
-35 -25 0
-35 -58 0
-35 -26 0
-35 -59 0
-35 -27 0
-35 -60 0
-35 -28 0
-35 -61 0
-35 -29 0
-35 -31 0
-35 -64 0
-35 -32 0
-36 -23 0
-36 -56 0
-36 -24 0
-36 -58 0
-36 -26 0
-36 -59 0
-36 -27 0
-36 -28 0
-36 -61 0
-36 -29 0
-36 -62 0
-36 -30 0
-36 -63 0
-36 -31 0
-36 -64 0
-36 -65 0
-36 -33 0
-36 -66 0
-37 -23 0
-37 -56 0
-37 -24 0
-37 -25 0
-37 -58 0
-37 -59 0
-37 -28 0
-37 -61 0
-37 -29 0
-37 -62 0
-37 -30 0
-37 -63 0
-37 -31 0
-37 -64 0
-37 -32 0
-37 -65 0
-37 -33 0
-37 -66 0
-38 -23 0
-38 -56 0
-38 -24 0
-38 -57 0
-38 -25 0
-38 -58 0
-38 -59 0
-38 -60 0
-38 -28 0
-38 -61 0
-38 -29 0
-38 -30 0
-38 -31 0
-38 -64 0
-38 -32 0
-38 -33 0
-39 -23 0
-39 -56 0
-39 -57 0
-39 -25 0
-39 -26 0
-39 -27 0
-39 -60 0
-39 -28 0
-39 -29 0
-39 -62 0
-39 -63 0
-39 -31 0
-39 -32 0
-39 -65 0
-39 -66 0
-40 -23 0
-40 -56 0
-40 -57 0
-40 -25 0
-40 -58 0
-40 -26 0
-40 -59 0
-40 -27 0
-40 -60 0
-40 -28 0
-40 -61 0
-40 -29 0
-40 -31 0
-40 -64 0
-40 -32 0
-41 -24 0
-41 -57 0
-41 -25 0
-41 -58 0
-41 -26 0
-41 -59 0
-41 -27 0
-41 -60 0
-41 -61 0
-41 -62 0
-41 -30 0
-41 -63 0
-41 -64 0
-41 -32 0
-41 -65 0
-41 -33 0
-41 -66 0
-42 -23 0
-42 -56 0
-42 -24 0
-42 -57 0
-42 -26 0
-42 -27 0
-42 -60 0
-42 -28 0
-42 -29 0
-42 -62 0
-42 -30 0
-42 -63 0
-42 -31 0
-42 -65 0
-42 -33 0
-42 -66 0
-43 -56 0
-43 -24 0
-43 -57 0
-43 -25 0
-43 -26 0
-43 -27 0
-43 -60 0
-43 -62 0
-43 -30 0
-43 -63 0
-43 -32 0
-43 -65 0
-43 -33 0
-43 -66 0
-44 -23 0
-44 -56 0
-44 -24 0
-44 -57 0
-44 -58 0
-44 -26 0
-44 -59 0
-44 -27 0
-44 -60 0
-44 -28 0
-44 -61 0
-44 -29 0
-44 -30 0
-44 -31 0
-44 -64 0
-44 -33 0
-45 -67 0
-45 -57 0
-45 -68 0
-45 -58 0
-45 -59 0
-45 -60 0
-45 -71 0
-45 -73 0
-45 -63 0
-45 -74 0
-45 -65 0
-45 -76 0
-45 -66 0
-45 -77 0
-46 -56 0
-46 -67 0
-46 -68 0
-46 -58 0
-46 -69 0
-46 -59 0
-46 -70 0
-46 -60 0
-46 -71 0
-46 -61 0
-46 -72 0
-46 -62 0
-46 -64 0
-46 -75 0
-46 -65 0
-47 -56 0
-47 -67 0
-47 -57 0
-47 -69 0
-47 -59 0
-47 -70 0
-47 -60 0
-47 -61 0
-47 -72 0
-47 -62 0
-47 -73 0
-47 -63 0
-47 -74 0
-47 -64 0
-47 -75 0
-47 -76 0
-47 -66 0
-47 -77 0
-48 -56 0
-48 -67 0
-48 -57 0
-48 -58 0
-48 -69 0
-48 -70 0
-48 -61 0
-48 -72 0
-48 -62 0
-48 -73 0
-48 -63 0
-48 -74 0
-48 -64 0
-48 -75 0
-48 -65 0
-48 -76 0
-48 -66 0
-48 -77 0
-49 -56 0
-49 -67 0
-49 -57 0
-49 -68 0
-49 -58 0
-49 -69 0
-49 -70 0
-49 -71 0
-49 -61 0
-49 -72 0
-49 -62 0
-49 -63 0
-49 -64 0
-49 -75 0
-49 -65 0
-49 -66 0
-50 -56 0
-50 -67 0
-50 -68 0
-50 -58 0
-50 -59 0
-50 -60 0
-50 -71 0
-50 -61 0
-50 -62 0
-50 -73 0
-50 -74 0
-50 -64 0
-50 -65 0
-50 -76 0
-50 -77 0
-51 -56 0
-51 -67 0
-51 -68 0
-51 -58 0
-51 -69 0
-51 -59 0
-51 -70 0
-51 -60 0
-51 -71 0
-51 -61 0
-51 -72 0
-51 -62 0
-51 -64 0
-51 -75 0
-51 -65 0
-52 -57 0
-52 -68 0
-52 -58 0
-52 -69 0
-52 -59 0
-52 -70 0
-52 -60 0
-52 -71 0
-52 -72 0
-52 -73 0
-52 -63 0
-52 -74 0
-52 -75 0
-52 -65 0
-52 -76 0
-52 -66 0
-52 -77 0
-53 -56 0
-53 -67 0
-53 -57 0
-53 -68 0
-53 -59 0
-53 -60 0
-53 -71 0
-53 -61 0
-53 -62 0
-53 -73 0
-53 -63 0
-53 -74 0
-53 -64 0
-53 -76 0
-53 -66 0
-53 -77 0
-54 -67 0
-54 -57 0
-54 -68 0
-54 -58 0
-54 -59 0
-54 -60 0
-54 -71 0
-54 -73 0
-54 -63 0
-54 -74 0
-54 -65 0
-54 -76 0
-54 -66 0
-54 -77 0
-55 -56 0
-55 -67 0
-55 -57 0
-55 -68 0
-55 -69 0
-55 -59 0
-55 -70 0
-55 -60 0
-55 -71 0
-55 -61 0
-55 -72 0
-55 -62 0
-55 -63 0
-55 -64 0
-55 -75 0
-55 -66 0
-56 -78 0
-56 -46 0
-56 -79 0
-56 -47 0
-56 -48 0
-56 -49 0
-56 -82 0
-56 -84 0
-56 -52 0
-56 -85 0
-56 -54 0
-56 -87 0
-56 -55 0
-56 -88 0
-57 -45 0
-57 -78 0
-57 -79 0
-57 -47 0
-57 -80 0
-57 -48 0
-57 -81 0
-57 -49 0
-57 -82 0
-57 -50 0
-57 -83 0
-57 -51 0
-57 -53 0
-57 -86 0
-57 -54 0
-58 -45 0
-58 -78 0
-58 -46 0
-58 -80 0
-58 -48 0
-58 -81 0
-58 -49 0
-58 -50 0
-58 -83 0
-58 -51 0
-58 -84 0
-58 -52 0
-58 -85 0
-58 -53 0
-58 -86 0
-58 -87 0
-58 -55 0
-58 -88 0
-59 -45 0
-59 -78 0
-59 -46 0
-59 -47 0
-59 -80 0
-59 -81 0
-59 -50 0
-59 -83 0
-59 -51 0
-59 -84 0
-59 -52 0
-59 -85 0
-59 -53 0
-59 -86 0
-59 -54 0
-59 -87 0
-59 -55 0
-59 -88 0
-60 -45 0
-60 -78 0
-60 -46 0
-60 -79 0
-60 -47 0
-60 -80 0
-60 -81 0
-60 -82 0
-60 -50 0
-60 -83 0
-60 -51 0
-60 -52 0
-60 -53 0
-60 -86 0
-60 -54 0
-60 -55 0
-61 -45 0
-61 -78 0
-61 -79 0
-61 -47 0
-61 -48 0
-61 -49 0
-61 -82 0
-61 -50 0
-61 -51 0
-61 -84 0
-61 -85 0
-61 -53 0
-61 -54 0
-61 -87 0
-61 -88 0
-62 -45 0
-62 -78 0
-62 -79 0
-62 -47 0
-62 -80 0
-62 -48 0
-62 -81 0
-62 -49 0
-62 -82 0
-62 -50 0
-62 -83 0
-62 -51 0
-62 -53 0
-62 -86 0
-62 -54 0
-63 -46 0
-63 -79 0
-63 -47 0
-63 -80 0
-63 -48 0
-63 -81 0
-63 -49 0
-63 -82 0
-63 -83 0
-63 -84 0
-63 -52 0
-63 -85 0
-63 -86 0
-63 -54 0
-63 -87 0
-63 -55 0
-63 -88 0
-64 -45 0
-64 -78 0
-64 -46 0
-64 -79 0
-64 -48 0
-64 -49 0
-64 -82 0
-64 -50 0
-64 -51 0
-64 -84 0
-64 -52 0
-64 -85 0
-64 -53 0
-64 -87 0
-64 -55 0
-64 -88 0
-65 -78 0
-65 -46 0
-65 -79 0
-65 -47 0
-65 -48 0
-65 -49 0
-65 -82 0
-65 -84 0
-65 -52 0
-65 -85 0
-65 -54 0
-65 -87 0
-65 -55 0
-65 -88 0
-66 -45 0
-66 -78 0
-66 -46 0
-66 -79 0
-66 -80 0
-66 -48 0
-66 -81 0
-66 -49 0
-66 -82 0
-66 -50 0
-66 -83 0
-66 -51 0
-66 -52 0
-66 -53 0
-66 -86 0
-66 -55 0
-67 -1 0
-67 -79 0
-67 -2 0
-67 -80 0
-67 -81 0
-67 -82 0
-67 -5 0
-67 -7 0
-67 -85 0
-67 -8 0
-67 -87 0
-67 -10 0
-67 -88 0
-67 -11 0
-68 -78 0
-68 -1 0
-68 -2 0
-68 -80 0
-68 -3 0
-68 -81 0
-68 -4 0
-68 -82 0
-68 -5 0
-68 -83 0
-68 -6 0
-68 -84 0
-68 -86 0
-68 -9 0
-68 -87 0
-69 -78 0
-69 -1 0
-69 -79 0
-69 -3 0
-69 -81 0
-69 -4 0
-69 -82 0
-69 -83 0
-69 -6 0
-69 -84 0
-69 -7 0
-69 -85 0
-69 -8 0
-69 -86 0
-69 -9 0
-69 -10 0
-69 -88 0
-69 -11 0
-70 -78 0
-70 -1 0
-70 -79 0
-70 -80 0
-70 -3 0
-70 -4 0
-70 -83 0
-70 -6 0
-70 -84 0
-70 -7 0
-70 -85 0
-70 -8 0
-70 -86 0
-70 -9 0
-70 -87 0
-70 -10 0
-70 -88 0
-70 -11 0
-71 -78 0
-71 -1 0
-71 -79 0
-71 -2 0
-71 -80 0
-71 -3 0
-71 -4 0
-71 -5 0
-71 -83 0
-71 -6 0
-71 -84 0
-71 -85 0
-71 -86 0
-71 -9 0
-71 -87 0
-71 -88 0
-72 -78 0
-72 -1 0
-72 -2 0
-72 -80 0
-72 -81 0
-72 -82 0
-72 -5 0
-72 -83 0
-72 -84 0
-72 -7 0
-72 -8 0
-72 -86 0
-72 -87 0
-72 -10 0
-72 -11 0
-73 -78 0
-73 -1 0
-73 -2 0
-73 -80 0
-73 -3 0
-73 -81 0
-73 -4 0
-73 -82 0
-73 -5 0
-73 -83 0
-73 -6 0
-73 -84 0
-73 -86 0
-73 -9 0
-73 -87 0
-74 -79 0
-74 -2 0
-74 -80 0
-74 -3 0
-74 -81 0
-74 -4 0
-74 -82 0
-74 -5 0
-74 -6 0
-74 -7 0
-74 -85 0
-74 -8 0
-74 -9 0
-74 -87 0
-74 -10 0
-74 -88 0
-74 -11 0
-75 -78 0
-75 -1 0
-75 -79 0
-75 -2 0
-75 -81 0
-75 -82 0
-75 -5 0
-75 -83 0
-75 -84 0
-75 -7 0
-75 -85 0
-75 -8 0
-75 -86 0
-75 -10 0
-75 -88 0
-75 -11 0
-76 -1 0
-76 -79 0
-76 -2 0
-76 -80 0
-76 -81 0
-76 -82 0
-76 -5 0
-76 -7 0
-76 -85 0
-76 -8 0
-76 -87 0
-76 -10 0
-76 -88 0
-76 -11 0
-77 -78 0
-77 -1 0
-77 -79 0
-77 -2 0
-77 -3 0
-77 -81 0
-77 -4 0
-77 -82 0
-77 -5 0
-77 -83 0
-77 -6 0
-77 -84 0
-77 -85 0
-77 -86 0
-77 -9 0
-77 -88 0
-78 -12 0
-78 -68 0
-78 -13 0
-78 -69 0
-78 -70 0
-78 -71 0
-78 -16 0
-78 -18 0
-78 -74 0
-78 -19 0
-78 -76 0
-78 -21 0
-78 -77 0
-78 -22 0
-79 -67 0
-79 -12 0
-79 -13 0
-79 -69 0
-79 -14 0
-79 -70 0
-79 -15 0
-79 -71 0
-79 -16 0
-79 -72 0
-79 -17 0
-79 -73 0
-79 -75 0
-79 -20 0
-79 -76 0
-80 -67 0
-80 -12 0
-80 -68 0
-80 -14 0
-80 -70 0
-80 -15 0
-80 -71 0
-80 -72 0
-80 -17 0
-80 -73 0
-80 -18 0
-80 -74 0
-80 -19 0
-80 -75 0
-80 -20 0
-80 -21 0
-80 -77 0
-80 -22 0
-81 -67 0
-81 -12 0
-81 -68 0
-81 -69 0
-81 -14 0
-81 -15 0
-81 -72 0
-81 -17 0
-81 -73 0
-81 -18 0
-81 -74 0
-81 -19 0
-81 -75 0
-81 -20 0
-81 -76 0
-81 -21 0
-81 -77 0
-81 -22 0
-82 -67 0
-82 -12 0
-82 -68 0
-82 -13 0
-82 -69 0
-82 -14 0
-82 -15 0
-82 -16 0
-82 -72 0
-82 -17 0
-82 -73 0
-82 -74 0
-82 -75 0
-82 -20 0
-82 -76 0
-82 -77 0
-83 -67 0
-83 -12 0
-83 -13 0
-83 -69 0
-83 -70 0
-83 -71 0
-83 -16 0
-83 -72 0
-83 -73 0
-83 -18 0
-83 -19 0
-83 -75 0
-83 -76 0
-83 -21 0
-83 -22 0
-84 -67 0
-84 -12 0
-84 -13 0
-84 -69 0
-84 -14 0
-84 -70 0
-84 -15 0
-84 -71 0
-84 -16 0
-84 -72 0
-84 -17 0
-84 -73 0
-84 -75 0
-84 -20 0
-84 -76 0
-85 -68 0
-85 -13 0
-85 -69 0
-85 -14 0
-85 -70 0
-85 -15 0
-85 -71 0
-85 -16 0
-85 -17 0
-85 -18 0
-85 -74 0
-85 -19 0
-85 -20 0
-85 -76 0
-85 -21 0
-85 -77 0
-85 -22 0
-86 -67 0
-86 -12 0
-86 -68 0
-86 -13 0
-86 -70 0
-86 -71 0
-86 -16 0
-86 -72 0
-86 -73 0
-86 -18 0
-86 -74 0
-86 -19 0
-86 -75 0
-86 -21 0
-86 -77 0
-86 -22 0
-87 -12 0
-87 -68 0
-87 -13 0
-87 -69 0
-87 -70 0
-87 -71 0
-87 -16 0
-87 -18 0
-87 -74 0
-87 -19 0
-87 -76 0
-87 -21 0
-87 -77 0
-87 -22 0
-88 -67 0
-88 -12 0
-88 -68 0
-88 -13 0
-88 -14 0
-88 -70 0
-88 -15 0
-88 -71 0
-88 -16 0
-88 -72 0
-88 -17 0
-88 -73 0
-88 -74 0
-88 -75 0
-88 -20 0
-88 -77 0
