p cnf 66 1380
1 2 3 4 5 6 7 8 9 10 11 0
-1 -2 0
-1 -3 0
-1 -4 0
-1 -5 0
-1 -6 0
-1 -7 0
-1 -8 0
-1 -9 0
-1 -10 0
-1 -11 0
-2 -3 0
-2 -4 0
-2 -5 0
-2 -6 0
-2 -7 0
-2 -8 0
-2 -9 0
-2 -10 0
-2 -11 0
-3 -4 0
-3 -5 0
-3 -6 0
-3 -7 0
-3 -8 0
-3 -9 0
-3 -10 0
-3 -11 0
-4 -5 0
-4 -6 0
-4 -7 0
-4 -8 0
-4 -9 0
-4 -10 0
-4 -11 0
-5 -6 0
-5 -7 0
-5 -8 0
-5 -9 0
-5 -10 0
-5 -11 0
-6 -7 0
-6 -8 0
-6 -9 0
-6 -10 0
-6 -11 0
-7 -8 0
-7 -9 0
-7 -10 0
-7 -11 0
-8 -9 0
-8 -10 0
-8 -11 0
-9 -10 0
-9 -11 0
-10 -11 0
12 13 14 15 16 17 18 19 20 21 22 0
-12 -13 0
-12 -14 0
-12 -15 0
-12 -16 0
-12 -17 0
-12 -18 0
-12 -19 0
-12 -20 0
-12 -21 0
-12 -22 0
-13 -14 0
-13 -15 0
-13 -16 0
-13 -17 0
-13 -18 0
-13 -19 0
-13 -20 0
-13 -21 0
-13 -22 0
-14 -15 0
-14 -16 0
-14 -17 0
-14 -18 0
-14 -19 0
-14 -20 0
-14 -21 0
-14 -22 0
-15 -16 0
-15 -17 0
-15 -18 0
-15 -19 0
-15 -20 0
-15 -21 0
-15 -22 0
-16 -17 0
-16 -18 0
-16 -19 0
-16 -20 0
-16 -21 0
-16 -22 0
-17 -18 0
-17 -19 0
-17 -20 0
-17 -21 0
-17 -22 0
-18 -19 0
-18 -20 0
-18 -21 0
-18 -22 0
-19 -20 0
-19 -21 0
-19 -22 0
-20 -21 0
-20 -22 0
-21 -22 0
23 24 25 26 27 28 29 30 31 32 33 0
-23 -24 0
-23 -25 0
-23 -26 0
-23 -27 0
-23 -28 0
-23 -29 0
-23 -30 0
-23 -31 0
-23 -32 0
-23 -33 0
-24 -25 0
-24 -26 0
-24 -27 0
-24 -28 0
-24 -29 0
-24 -30 0
-24 -31 0
-24 -32 0
-24 -33 0
-25 -26 0
-25 -27 0
-25 -28 0
-25 -29 0
-25 -30 0
-25 -31 0
-25 -32 0
-25 -33 0
-26 -27 0
-26 -28 0
-26 -29 0
-26 -30 0
-26 -31 0
-26 -32 0
-26 -33 0
-27 -28 0
-27 -29 0
-27 -30 0
-27 -31 0
-27 -32 0
-27 -33 0
-28 -29 0
-28 -30 0
-28 -31 0
-28 -32 0
-28 -33 0
-29 -30 0
-29 -31 0
-29 -32 0
-29 -33 0
-30 -31 0
-30 -32 0
-30 -33 0
-31 -32 0
-31 -33 0
-32 -33 0
34 35 36 37 38 39 40 41 42 43 44 0
-34 -35 0
-34 -36 0
-34 -37 0
-34 -38 0
-34 -39 0
-34 -40 0
-34 -41 0
-34 -42 0
-34 -43 0
-34 -44 0
-35 -36 0
-35 -37 0
-35 -38 0
-35 -39 0
-35 -40 0
-35 -41 0
-35 -42 0
-35 -43 0
-35 -44 0
-36 -37 0
-36 -38 0
-36 -39 0
-36 -40 0
-36 -41 0
-36 -42 0
-36 -43 0
-36 -44 0
-37 -38 0
-37 -39 0
-37 -40 0
-37 -41 0
-37 -42 0
-37 -43 0
-37 -44 0
-38 -39 0
-38 -40 0
-38 -41 0
-38 -42 0
-38 -43 0
-38 -44 0
-39 -40 0
-39 -41 0
-39 -42 0
-39 -43 0
-39 -44 0
-40 -41 0
-40 -42 0
-40 -43 0
-40 -44 0
-41 -42 0
-41 -43 0
-41 -44 0
-42 -43 0
-42 -44 0
-43 -44 0
45 46 47 48 49 50 51 52 53 54 55 0
-45 -46 0
-45 -47 0
-45 -48 0
-45 -49 0
-45 -50 0
-45 -51 0
-45 -52 0
-45 -53 0
-45 -54 0
-45 -55 0
-46 -47 0
-46 -48 0
-46 -49 0
-46 -50 0
-46 -51 0
-46 -52 0
-46 -53 0
-46 -54 0
-46 -55 0
-47 -48 0
-47 -49 0
-47 -50 0
-47 -51 0
-47 -52 0
-47 -53 0
-47 -54 0
-47 -55 0
-48 -49 0
-48 -50 0
-48 -51 0
-48 -52 0
-48 -53 0
-48 -54 0
-48 -55 0
-49 -50 0
-49 -51 0
-49 -52 0
-49 -53 0
-49 -54 0
-49 -55 0
-50 -51 0
-50 -52 0
-50 -53 0
-50 -54 0
-50 -55 0
-51 -52 0
-51 -53 0
-51 -54 0
-51 -55 0
-52 -53 0
-52 -54 0
-52 -55 0
-53 -54 0
-53 -55 0
-54 -55 0
56 57 58 59 60 61 62 63 64 65 66 0
-56 -57 0
-56 -58 0
-56 -59 0
-56 -60 0
-56 -61 0
-56 -62 0
-56 -63 0
-56 -64 0
-56 -65 0
-56 -66 0
-57 -58 0
-57 -59 0
-57 -60 0
-57 -61 0
-57 -62 0
-57 -63 0
-57 -64 0
-57 -65 0
-57 -66 0
-58 -59 0
-58 -60 0
-58 -61 0
-58 -62 0
-58 -63 0
-58 -64 0
-58 -65 0
-58 -66 0
-59 -60 0
-59 -61 0
-59 -62 0
-59 -63 0
-59 -64 0
-59 -65 0
-59 -66 0
-60 -61 0
-60 -62 0
-60 -63 0
-60 -64 0
-60 -65 0
-60 -66 0
-61 -62 0
-61 -63 0
-61 -64 0
-61 -65 0
-61 -66 0
-62 -63 0
-62 -64 0
-62 -65 0
-62 -66 0
-63 -64 0
-63 -65 0
-63 -66 0
-64 -65 0
-64 -66 0
-65 -66 0
-1 -34 0
-1 -13 0
-1 -35 0
-1 -14 0
-1 -15 0
-1 -16 0
-1 -38 0
-1 -40 0
-1 -19 0
-1 -41 0
-1 -21 0
-1 -43 0
-1 -22 0
-1 -44 0
-2 -12 0
-2 -34 0
-2 -35 0
-2 -14 0
-2 -36 0
-2 -15 0
-2 -37 0
-2 -16 0
-2 -38 0
-2 -17 0
-2 -39 0
-2 -18 0
-2 -20 0
-2 -42 0
-2 -21 0
-3 -12 0
-3 -34 0
-3 -13 0
-3 -36 0
-3 -15 0
-3 -37 0
-3 -16 0
-3 -17 0
-3 -39 0
-3 -18 0
-3 -40 0
-3 -19 0
-3 -41 0
-3 -20 0
-3 -42 0
-3 -43 0
-3 -22 0
-3 -44 0
-4 -12 0
-4 -34 0
-4 -13 0
-4 -14 0
-4 -36 0
-4 -37 0
-4 -17 0
-4 -39 0
-4 -18 0
-4 -40 0
-4 -19 0
-4 -41 0
-4 -20 0
-4 -42 0
-4 -21 0
-4 -43 0
-4 -22 0
-4 -44 0
-5 -12 0
-5 -34 0
-5 -13 0
-5 -35 0
-5 -14 0
-5 -36 0
-5 -37 0
-5 -38 0
-5 -17 0
-5 -39 0
-5 -18 0
-5 -19 0
-5 -20 0
-5 -42 0
-5 -21 0
-5 -22 0
-6 -12 0
-6 -34 0
-6 -35 0
-6 -14 0
-6 -15 0
-6 -16 0
-6 -38 0
-6 -17 0
-6 -18 0
-6 -40 0
-6 -41 0
-6 -20 0
-6 -21 0
-6 -43 0
-6 -44 0
-7 -12 0
-7 -34 0
-7 -35 0
-7 -14 0
-7 -36 0
-7 -15 0
-7 -37 0
-7 -16 0
-7 -38 0
-7 -17 0
-7 -39 0
-7 -18 0
-7 -20 0
-7 -42 0
-7 -21 0
-8 -13 0
-8 -35 0
-8 -14 0
-8 -36 0
-8 -15 0
-8 -37 0
-8 -16 0
-8 -38 0
-8 -39 0
-8 -40 0
-8 -19 0
-8 -41 0
-8 -42 0
-8 -21 0
-8 -43 0
-8 -22 0
-8 -44 0
-9 -12 0
-9 -34 0
-9 -13 0
-9 -35 0
-9 -15 0
-9 -16 0
-9 -38 0
-9 -17 0
-9 -18 0
-9 -40 0
-9 -19 0
-9 -41 0
-9 -20 0
-9 -43 0
-9 -22 0
-9 -44 0
-10 -34 0
-10 -13 0
-10 -35 0
-10 -14 0
-10 -15 0
-10 -16 0
-10 -38 0
-10 -40 0
-10 -19 0
-10 -41 0
-10 -21 0
-10 -43 0
-10 -22 0
-10 -44 0
-11 -12 0
-11 -34 0
-11 -13 0
-11 -35 0
-11 -36 0
-11 -15 0
-11 -37 0
-11 -16 0
-11 -38 0
-11 -17 0
-11 -39 0
-11 -18 0
-11 -19 0
-11 -20 0
-11 -42 0
-11 -22 0
-12 -45 0
-12 -24 0
-12 -46 0
-12 -25 0
-12 -26 0
-12 -27 0
-12 -49 0
-12 -51 0
-12 -30 0
-12 -52 0
-12 -32 0
-12 -54 0
-12 -33 0
-12 -55 0
-13 -23 0
-13 -45 0
-13 -46 0
-13 -25 0
-13 -47 0
-13 -26 0
-13 -48 0
-13 -27 0
-13 -49 0
-13 -28 0
-13 -50 0
-13 -29 0
-13 -31 0
-13 -53 0
-13 -32 0
-14 -23 0
-14 -45 0
-14 -24 0
-14 -47 0
-14 -26 0
-14 -48 0
-14 -27 0
-14 -28 0
-14 -50 0
-14 -29 0
-14 -51 0
-14 -30 0
-14 -52 0
-14 -31 0
-14 -53 0
-14 -54 0
-14 -33 0
-14 -55 0
-15 -23 0
-15 -45 0
-15 -24 0
-15 -25 0
-15 -47 0
-15 -48 0
-15 -28 0
-15 -50 0
-15 -29 0
-15 -51 0
-15 -30 0
-15 -52 0
-15 -31 0
-15 -53 0
-15 -32 0
-15 -54 0
-15 -33 0
-15 -55 0
-16 -23 0
-16 -45 0
-16 -24 0
-16 -46 0
-16 -25 0
-16 -47 0
-16 -48 0
-16 -49 0
-16 -28 0
-16 -50 0
-16 -29 0
-16 -30 0
-16 -31 0
-16 -53 0
-16 -32 0
-16 -33 0
-17 -23 0
-17 -45 0
-17 -46 0
-17 -25 0
-17 -26 0
-17 -27 0
-17 -49 0
-17 -28 0
-17 -29 0
-17 -51 0
-17 -52 0
-17 -31 0
-17 -32 0
-17 -54 0
-17 -55 0
-18 -23 0
-18 -45 0
-18 -46 0
-18 -25 0
-18 -47 0
-18 -26 0
-18 -48 0
-18 -27 0
-18 -49 0
-18 -28 0
-18 -50 0
-18 -29 0
-18 -31 0
-18 -53 0
-18 -32 0
-19 -24 0
-19 -46 0
-19 -25 0
-19 -47 0
-19 -26 0
-19 -48 0
-19 -27 0
-19 -49 0
-19 -50 0
-19 -51 0
-19 -30 0
-19 -52 0
-19 -53 0
-19 -32 0
-19 -54 0
-19 -33 0
-19 -55 0
-20 -23 0
-20 -45 0
-20 -24 0
-20 -46 0
-20 -26 0
-20 -27 0
-20 -49 0
-20 -28 0
-20 -29 0
-20 -51 0
-20 -30 0
-20 -52 0
-20 -31 0
-20 -54 0
-20 -33 0
-20 -55 0
-21 -45 0
-21 -24 0
-21 -46 0
-21 -25 0
-21 -26 0
-21 -27 0
-21 -49 0
-21 -51 0
-21 -30 0
-21 -52 0
-21 -32 0
-21 -54 0
-21 -33 0
-21 -55 0
-22 -23 0
-22 -45 0
-22 -24 0
-22 -46 0
-22 -47 0
-22 -26 0
-22 -48 0
-22 -27 0
-22 -49 0
-22 -28 0
-22 -50 0
-22 -29 0
-22 -30 0
-22 -31 0
-22 -53 0
-22 -33 0
-23 -56 0
-23 -2 0
-23 -57 0
-23 -3 0
-23 -4 0
-23 -5 0
-23 -60 0
-23 -62 0
-23 -8 0
-23 -63 0
-23 -10 0
-23 -65 0
-23 -11 0
-23 -66 0
-24 -1 0
-24 -56 0
-24 -57 0
-24 -3 0
-24 -58 0
-24 -4 0
-24 -59 0
-24 -5 0
-24 -60 0
-24 -6 0
-24 -61 0
-24 -7 0
-24 -9 0
-24 -64 0
-24 -10 0
-25 -1 0
-25 -56 0
-25 -2 0
-25 -58 0
-25 -4 0
-25 -59 0
-25 -5 0
-25 -6 0
-25 -61 0
-25 -7 0
-25 -62 0
-25 -8 0
-25 -63 0
-25 -9 0
-25 -64 0
-25 -65 0
-25 -11 0
-25 -66 0
-26 -1 0
-26 -56 0
-26 -2 0
-26 -3 0
-26 -58 0
-26 -59 0
-26 -6 0
-26 -61 0
-26 -7 0
-26 -62 0
-26 -8 0
-26 -63 0
-26 -9 0
-26 -64 0
-26 -10 0
-26 -65 0
-26 -11 0
-26 -66 0
-27 -1 0
-27 -56 0
-27 -2 0
-27 -57 0
-27 -3 0
-27 -58 0
-27 -59 0
-27 -60 0
-27 -6 0
-27 -61 0
-27 -7 0
-27 -8 0
-27 -9 0
-27 -64 0
-27 -10 0
-27 -11 0
-28 -1 0
-28 -56 0
-28 -57 0
-28 -3 0
-28 -4 0
-28 -5 0
-28 -60 0
-28 -6 0
-28 -7 0
-28 -62 0
-28 -63 0
-28 -9 0
-28 -10 0
-28 -65 0
-28 -66 0
-29 -1 0
-29 -56 0
-29 -57 0
-29 -3 0
-29 -58 0
-29 -4 0
-29 -59 0
-29 -5 0
-29 -60 0
-29 -6 0
-29 -61 0
-29 -7 0
-29 -9 0
-29 -64 0
-29 -10 0
-30 -2 0
-30 -57 0
-30 -3 0
-30 -58 0
-30 -4 0
-30 -59 0
-30 -5 0
-30 -60 0
-30 -61 0
-30 -62 0
-30 -8 0
-30 -63 0
-30 -64 0
-30 -10 0
-30 -65 0
-30 -11 0
-30 -66 0
-31 -1 0
-31 -56 0
-31 -2 0
-31 -57 0
-31 -4 0
-31 -5 0
-31 -60 0
-31 -6 0
-31 -7 0
-31 -62 0
-31 -8 0
-31 -63 0
-31 -9 0
-31 -65 0
-31 -11 0
-31 -66 0
-32 -56 0
-32 -2 0
-32 -57 0
-32 -3 0
-32 -4 0
-32 -5 0
-32 -60 0
-32 -62 0
-32 -8 0
-32 -63 0
-32 -10 0
-32 -65 0
-32 -11 0
-32 -66 0
-33 -1 0
-33 -56 0
-33 -2 0
-33 -57 0
-33 -58 0
-33 -4 0
-33 -59 0
-33 -5 0
-33 -60 0
-33 -6 0
-33 -61 0
-33 -7 0
-33 -8 0
-33 -9 0
-33 -64 0
-33 -11 0
-34 -1 0
-34 -46 0
-34 -2 0
-34 -47 0
-34 -48 0
-34 -49 0
-34 -5 0
-34 -7 0
-34 -52 0
-34 -8 0
-34 -54 0
-34 -10 0
-34 -55 0
-34 -11 0
-35 -45 0
-35 -1 0
-35 -2 0
-35 -47 0
-35 -3 0
-35 -48 0
-35 -4 0
-35 -49 0
-35 -5 0
-35 -50 0
-35 -6 0
-35 -51 0
-35 -53 0
-35 -9 0
-35 -54 0
-36 -45 0
-36 -1 0
-36 -46 0
-36 -3 0
-36 -48 0
-36 -4 0
-36 -49 0
-36 -50 0
-36 -6 0
-36 -51 0
-36 -7 0
-36 -52 0
-36 -8 0
-36 -53 0
-36 -9 0
-36 -10 0
-36 -55 0
-36 -11 0
-37 -45 0
-37 -1 0
-37 -46 0
-37 -47 0
-37 -3 0
-37 -4 0
-37 -50 0
-37 -6 0
-37 -51 0
-37 -7 0
-37 -52 0
-37 -8 0
-37 -53 0
-37 -9 0
-37 -54 0
-37 -10 0
-37 -55 0
-37 -11 0
-38 -45 0
-38 -1 0
-38 -46 0
-38 -2 0
-38 -47 0
-38 -3 0
-38 -4 0
-38 -5 0
-38 -50 0
-38 -6 0
-38 -51 0
-38 -52 0
-38 -53 0
-38 -9 0
-38 -54 0
-38 -55 0
-39 -45 0
-39 -1 0
-39 -2 0
-39 -47 0
-39 -48 0
-39 -49 0
-39 -5 0
-39 -50 0
-39 -51 0
-39 -7 0
-39 -8 0
-39 -53 0
-39 -54 0
-39 -10 0
-39 -11 0
-40 -45 0
-40 -1 0
-40 -2 0
-40 -47 0
-40 -3 0
-40 -48 0
-40 -4 0
-40 -49 0
-40 -5 0
-40 -50 0
-40 -6 0
-40 -51 0
-40 -53 0
-40 -9 0
-40 -54 0
-41 -46 0
-41 -2 0
-41 -47 0
-41 -3 0
-41 -48 0
-41 -4 0
-41 -49 0
-41 -5 0
-41 -6 0
-41 -7 0
-41 -52 0
-41 -8 0
-41 -9 0
-41 -54 0
-41 -10 0
-41 -55 0
-41 -11 0
-42 -45 0
-42 -1 0
-42 -46 0
-42 -2 0
-42 -48 0
-42 -49 0
-42 -5 0
-42 -50 0
-42 -51 0
-42 -7 0
-42 -52 0
-42 -8 0
-42 -53 0
-42 -10 0
-42 -55 0
-42 -11 0
-43 -1 0
-43 -46 0
-43 -2 0
-43 -47 0
-43 -48 0
-43 -49 0
-43 -5 0
-43 -7 0
-43 -52 0
-43 -8 0
-43 -54 0
-43 -10 0
-43 -55 0
-43 -11 0
-44 -45 0
-44 -1 0
-44 -46 0
-44 -2 0
-44 -3 0
-44 -48 0
-44 -4 0
-44 -49 0
-44 -5 0
-44 -50 0
-44 -6 0
-44 -51 0
-44 -52 0
-44 -53 0
-44 -9 0
-44 -55 0
-45 -12 0
-45 -57 0
-45 -13 0
-45 -58 0
-45 -59 0
-45 -60 0
-45 -16 0
-45 -18 0
-45 -63 0
-45 -19 0
-45 -65 0
-45 -21 0
-45 -66 0
-45 -22 0
-46 -56 0
-46 -12 0
-46 -13 0
-46 -58 0
-46 -14 0
-46 -59 0
-46 -15 0
-46 -60 0
-46 -16 0
-46 -61 0
-46 -17 0
-46 -62 0
-46 -64 0
-46 -20 0
-46 -65 0
-47 -56 0
-47 -12 0
-47 -57 0
-47 -14 0
-47 -59 0
-47 -15 0
-47 -60 0
-47 -61 0
-47 -17 0
-47 -62 0
-47 -18 0
-47 -63 0
-47 -19 0
-47 -64 0
-47 -20 0
-47 -21 0
-47 -66 0
-47 -22 0
-48 -56 0
-48 -12 0
-48 -57 0
-48 -58 0
-48 -14 0
-48 -15 0
-48 -61 0
-48 -17 0
-48 -62 0
-48 -18 0
-48 -63 0
-48 -19 0
-48 -64 0
-48 -20 0
-48 -65 0
-48 -21 0
-48 -66 0
-48 -22 0
-49 -56 0
-49 -12 0
-49 -57 0
-49 -13 0
-49 -58 0
-49 -14 0
-49 -15 0
-49 -16 0
-49 -61 0
-49 -17 0
-49 -62 0
-49 -63 0
-49 -64 0
-49 -20 0
-49 -65 0
-49 -66 0
-50 -56 0
-50 -12 0
-50 -13 0
-50 -58 0
-50 -59 0
-50 -60 0
-50 -16 0
-50 -61 0
-50 -62 0
-50 -18 0
-50 -19 0
-50 -64 0
-50 -65 0
-50 -21 0
-50 -22 0
-51 -56 0
-51 -12 0
-51 -13 0
-51 -58 0
-51 -14 0
-51 -59 0
-51 -15 0
-51 -60 0
-51 -16 0
-51 -61 0
-51 -17 0
-51 -62 0
-51 -64 0
-51 -20 0
-51 -65 0
-52 -57 0
-52 -13 0
-52 -58 0
-52 -14 0
-52 -59 0
-52 -15 0
-52 -60 0
-52 -16 0
-52 -17 0
-52 -18 0
-52 -63 0
-52 -19 0
-52 -20 0
-52 -65 0
-52 -21 0
-52 -66 0
-52 -22 0
-53 -56 0
-53 -12 0
-53 -57 0
-53 -13 0
-53 -59 0
-53 -60 0
-53 -16 0
-53 -61 0
-53 -62 0
-53 -18 0
-53 -63 0
-53 -19 0
-53 -64 0
-53 -21 0
-53 -66 0
-53 -22 0
-54 -12 0
-54 -57 0
-54 -13 0
-54 -58 0
-54 -59 0
-54 -60 0
-54 -16 0
-54 -18 0
-54 -63 0
-54 -19 0
-54 -65 0
-54 -21 0
-54 -66 0
-54 -22 0
-55 -56 0
-55 -12 0
-55 -57 0
-55 -13 0
-55 -14 0
-55 -59 0
-55 -15 0
-55 -60 0
-55 -16 0
-55 -61 0
-55 -17 0
-55 -62 0
-55 -63 0
-55 -64 0
-55 -20 0
-55 -66 0
-56 -23 0
-56 -35 0
-56 -24 0
-56 -36 0
-56 -37 0
-56 -38 0
-56 -27 0
-56 -29 0
-56 -41 0
-56 -30 0
-56 -43 0
-56 -32 0
-56 -44 0
-56 -33 0
-57 -34 0
-57 -23 0
-57 -24 0
-57 -36 0
-57 -25 0
-57 -37 0
-57 -26 0
-57 -38 0
-57 -27 0
-57 -39 0
-57 -28 0
-57 -40 0
-57 -42 0
-57 -31 0
-57 -43 0
-58 -34 0
-58 -23 0
-58 -35 0
-58 -25 0
-58 -37 0
-58 -26 0
-58 -38 0
-58 -39 0
-58 -28 0
-58 -40 0
-58 -29 0
-58 -41 0
-58 -30 0
-58 -42 0
-58 -31 0
-58 -32 0
-58 -44 0
-58 -33 0
-59 -34 0
-59 -23 0
-59 -35 0
-59 -36 0
-59 -25 0
-59 -26 0
-59 -39 0
-59 -28 0
-59 -40 0
-59 -29 0
-59 -41 0
-59 -30 0
-59 -42 0
-59 -31 0
-59 -43 0
-59 -32 0
-59 -44 0
-59 -33 0
-60 -34 0
-60 -23 0
-60 -35 0
-60 -24 0
-60 -36 0
-60 -25 0
-60 -26 0
-60 -27 0
-60 -39 0
-60 -28 0
-60 -40 0
-60 -41 0
-60 -42 0
-60 -31 0
-60 -43 0
-60 -44 0
-61 -34 0
-61 -23 0
-61 -24 0
-61 -36 0
-61 -37 0
-61 -38 0
-61 -27 0
-61 -39 0
-61 -40 0
-61 -29 0
-61 -30 0
-61 -42 0
-61 -43 0
-61 -32 0
-61 -33 0
-62 -34 0
-62 -23 0
-62 -24 0
-62 -36 0
-62 -25 0
-62 -37 0
-62 -26 0
-62 -38 0
-62 -27 0
-62 -39 0
-62 -28 0
-62 -40 0
-62 -42 0
-62 -31 0
-62 -43 0
-63 -35 0
-63 -24 0
-63 -36 0
-63 -25 0
-63 -37 0
-63 -26 0
-63 -38 0
-63 -27 0
-63 -28 0
-63 -29 0
-63 -41 0
-63 -30 0
-63 -31 0
-63 -43 0
-63 -32 0
-63 -44 0
-63 -33 0
-64 -34 0
-64 -23 0
-64 -35 0
-64 -24 0
-64 -37 0
-64 -38 0
-64 -27 0
-64 -39 0
-64 -40 0
-64 -29 0
-64 -41 0
-64 -30 0
-64 -42 0
-64 -32 0
-64 -44 0
-64 -33 0
-65 -23 0
-65 -35 0
-65 -24 0
-65 -36 0
-65 -37 0
-65 -38 0
-65 -27 0
-65 -29 0
-65 -41 0
-65 -30 0
-65 -43 0
-65 -32 0
-65 -44 0
-65 -33 0
-66 -34 0
-66 -23 0
-66 -35 0
-66 -24 0
-66 -25 0
-66 -37 0
-66 -26 0
-66 -38 0
-66 -27 0
-66 -39 0
-66 -28 0
-66 -40 0
-66 -41 0
-66 -42 0
-66 -31 0
-66 -44 0
