p cnf 132 2760
1 2 3 4 5 6 7 8 9 10 11 0
-1 -2 0
-1 -3 0
-1 -4 0
-1 -5 0
-1 -6 0
-1 -7 0
-1 -8 0
-1 -9 0
-1 -10 0
-1 -11 0
-2 -3 0
-2 -4 0
-2 -5 0
-2 -6 0
-2 -7 0
-2 -8 0
-2 -9 0
-2 -10 0
-2 -11 0
-3 -4 0
-3 -5 0
-3 -6 0
-3 -7 0
-3 -8 0
-3 -9 0
-3 -10 0
-3 -11 0
-4 -5 0
-4 -6 0
-4 -7 0
-4 -8 0
-4 -9 0
-4 -10 0
-4 -11 0
-5 -6 0
-5 -7 0
-5 -8 0
-5 -9 0
-5 -10 0
-5 -11 0
-6 -7 0
-6 -8 0
-6 -9 0
-6 -10 0
-6 -11 0
-7 -8 0
-7 -9 0
-7 -10 0
-7 -11 0
-8 -9 0
-8 -10 0
-8 -11 0
-9 -10 0
-9 -11 0
-10 -11 0
12 13 14 15 16 17 18 19 20 21 22 0
-12 -13 0
-12 -14 0
-12 -15 0
-12 -16 0
-12 -17 0
-12 -18 0
-12 -19 0
-12 -20 0
-12 -21 0
-12 -22 0
-13 -14 0
-13 -15 0
-13 -16 0
-13 -17 0
-13 -18 0
-13 -19 0
-13 -20 0
-13 -21 0
-13 -22 0
-14 -15 0
-14 -16 0
-14 -17 0
-14 -18 0
-14 -19 0
-14 -20 0
-14 -21 0
-14 -22 0
-15 -16 0
-15 -17 0
-15 -18 0
-15 -19 0
-15 -20 0
-15 -21 0
-15 -22 0
-16 -17 0
-16 -18 0
-16 -19 0
-16 -20 0
-16 -21 0
-16 -22 0
-17 -18 0
-17 -19 0
-17 -20 0
-17 -21 0
-17 -22 0
-18 -19 0
-18 -20 0
-18 -21 0
-18 -22 0
-19 -20 0
-19 -21 0
-19 -22 0
-20 -21 0
-20 -22 0
-21 -22 0
23 24 25 26 27 28 29 30 31 32 33 0
-23 -24 0
-23 -25 0
-23 -26 0
-23 -27 0
-23 -28 0
-23 -29 0
-23 -30 0
-23 -31 0
-23 -32 0
-23 -33 0
-24 -25 0
-24 -26 0
-24 -27 0
-24 -28 0
-24 -29 0
-24 -30 0
-24 -31 0
-24 -32 0
-24 -33 0
-25 -26 0
-25 -27 0
-25 -28 0
-25 -29 0
-25 -30 0
-25 -31 0
-25 -32 0
-25 -33 0
-26 -27 0
-26 -28 0
-26 -29 0
-26 -30 0
-26 -31 0
-26 -32 0
-26 -33 0
-27 -28 0
-27 -29 0
-27 -30 0
-27 -31 0
-27 -32 0
-27 -33 0
-28 -29 0
-28 -30 0
-28 -31 0
-28 -32 0
-28 -33 0
-29 -30 0
-29 -31 0
-29 -32 0
-29 -33 0
-30 -31 0
-30 -32 0
-30 -33 0
-31 -32 0
-31 -33 0
-32 -33 0
34 35 36 37 38 39 40 41 42 43 44 0
-34 -35 0
-34 -36 0
-34 -37 0
-34 -38 0
-34 -39 0
-34 -40 0
-34 -41 0
-34 -42 0
-34 -43 0
-34 -44 0
-35 -36 0
-35 -37 0
-35 -38 0
-35 -39 0
-35 -40 0
-35 -41 0
-35 -42 0
-35 -43 0
-35 -44 0
-36 -37 0
-36 -38 0
-36 -39 0
-36 -40 0
-36 -41 0
-36 -42 0
-36 -43 0
-36 -44 0
-37 -38 0
-37 -39 0
-37 -40 0
-37 -41 0
-37 -42 0
-37 -43 0
-37 -44 0
-38 -39 0
-38 -40 0
-38 -41 0
-38 -42 0
-38 -43 0
-38 -44 0
-39 -40 0
-39 -41 0
-39 -42 0
-39 -43 0
-39 -44 0
-40 -41 0
-40 -42 0
-40 -43 0
-40 -44 0
-41 -42 0
-41 -43 0
-41 -44 0
-42 -43 0
-42 -44 0
-43 -44 0
45 46 47 48 49 50 51 52 53 54 55 0
-45 -46 0
-45 -47 0
-45 -48 0
-45 -49 0
-45 -50 0
-45 -51 0
-45 -52 0
-45 -53 0
-45 -54 0
-45 -55 0
-46 -47 0
-46 -48 0
-46 -49 0
-46 -50 0
-46 -51 0
-46 -52 0
-46 -53 0
-46 -54 0
-46 -55 0
-47 -48 0
-47 -49 0
-47 -50 0
-47 -51 0
-47 -52 0
-47 -53 0
-47 -54 0
-47 -55 0
-48 -49 0
-48 -50 0
-48 -51 0
-48 -52 0
-48 -53 0
-48 -54 0
-48 -55 0
-49 -50 0
-49 -51 0
-49 -52 0
-49 -53 0
-49 -54 0
-49 -55 0
-50 -51 0
-50 -52 0
-50 -53 0
-50 -54 0
-50 -55 0
-51 -52 0
-51 -53 0
-51 -54 0
-51 -55 0
-52 -53 0
-52 -54 0
-52 -55 0
-53 -54 0
-53 -55 0
-54 -55 0
56 57 58 59 60 61 62 63 64 65 66 0
-56 -57 0
-56 -58 0
-56 -59 0
-56 -60 0
-56 -61 0
-56 -62 0
-56 -63 0
-56 -64 0
-56 -65 0
-56 -66 0
-57 -58 0
-57 -59 0
-57 -60 0
-57 -61 0
-57 -62 0
-57 -63 0
-57 -64 0
-57 -65 0
-57 -66 0
-58 -59 0
-58 -60 0
-58 -61 0
-58 -62 0
-58 -63 0
-58 -64 0
-58 -65 0
-58 -66 0
-59 -60 0
-59 -61 0
-59 -62 0
-59 -63 0
-59 -64 0
-59 -65 0
-59 -66 0
-60 -61 0
-60 -62 0
-60 -63 0
-60 -64 0
-60 -65 0
-60 -66 0
-61 -62 0
-61 -63 0
-61 -64 0
-61 -65 0
-61 -66 0
-62 -63 0
-62 -64 0
-62 -65 0
-62 -66 0
-63 -64 0
-63 -65 0
-63 -66 0
-64 -65 0
-64 -66 0
-65 -66 0
67 68 69 70 71 72 73 74 75 76 77 0
-67 -68 0
-67 -69 0
-67 -70 0
-67 -71 0
-67 -72 0
-67 -73 0
-67 -74 0
-67 -75 0
-67 -76 0
-67 -77 0
-68 -69 0
-68 -70 0
-68 -71 0
-68 -72 0
-68 -73 0
-68 -74 0
-68 -75 0
-68 -76 0
-68 -77 0
-69 -70 0
-69 -71 0
-69 -72 0
-69 -73 0
-69 -74 0
-69 -75 0
-69 -76 0
-69 -77 0
-70 -71 0
-70 -72 0
-70 -73 0
-70 -74 0
-70 -75 0
-70 -76 0
-70 -77 0
-71 -72 0
-71 -73 0
-71 -74 0
-71 -75 0
-71 -76 0
-71 -77 0
-72 -73 0
-72 -74 0
-72 -75 0
-72 -76 0
-72 -77 0
-73 -74 0
-73 -75 0
-73 -76 0
-73 -77 0
-74 -75 0
-74 -76 0
-74 -77 0
-75 -76 0
-75 -77 0
-76 -77 0
78 79 80 81 82 83 84 85 86 87 88 0
-78 -79 0
-78 -80 0
-78 -81 0
-78 -82 0
-78 -83 0
-78 -84 0
-78 -85 0
-78 -86 0
-78 -87 0
-78 -88 0
-79 -80 0
-79 -81 0
-79 -82 0
-79 -83 0
-79 -84 0
-79 -85 0
-79 -86 0
-79 -87 0
-79 -88 0
-80 -81 0
-80 -82 0
-80 -83 0
-80 -84 0
-80 -85 0
-80 -86 0
-80 -87 0
-80 -88 0
-81 -82 0
-81 -83 0
-81 -84 0
-81 -85 0
-81 -86 0
-81 -87 0
-81 -88 0
-82 -83 0
-82 -84 0
-82 -85 0
-82 -86 0
-82 -87 0
-82 -88 0
-83 -84 0
-83 -85 0
-83 -86 0
-83 -87 0
-83 -88 0
-84 -85 0
-84 -86 0
-84 -87 0
-84 -88 0
-85 -86 0
-85 -87 0
-85 -88 0
-86 -87 0
-86 -88 0
-87 -88 0
89 90 91 92 93 94 95 96 97 98 99 0
-89 -90 0
-89 -91 0
-89 -92 0
-89 -93 0
-89 -94 0
-89 -95 0
-89 -96 0
-89 -97 0
-89 -98 0
-89 -99 0
-90 -91 0
-90 -92 0
-90 -93 0
-90 -94 0
-90 -95 0
-90 -96 0
-90 -97 0
-90 -98 0
-90 -99 0
-91 -92 0
-91 -93 0
-91 -94 0
-91 -95 0
-91 -96 0
-91 -97 0
-91 -98 0
-91 -99 0
-92 -93 0
-92 -94 0
-92 -95 0
-92 -96 0
-92 -97 0
-92 -98 0
-92 -99 0
-93 -94 0
-93 -95 0
-93 -96 0
-93 -97 0
-93 -98 0
-93 -99 0
-94 -95 0
-94 -96 0
-94 -97 0
-94 -98 0
-94 -99 0
-95 -96 0
-95 -97 0
-95 -98 0
-95 -99 0
-96 -97 0
-96 -98 0
-96 -99 0
-97 -98 0
-97 -99 0
-98 -99 0
100 101 102 103 104 105 106 107 108 109 110 0
-100 -101 0
-100 -102 0
-100 -103 0
-100 -104 0
-100 -105 0
-100 -106 0
-100 -107 0
-100 -108 0
-100 -109 0
-100 -110 0
-101 -102 0
-101 -103 0
-101 -104 0
-101 -105 0
-101 -106 0
-101 -107 0
-101 -108 0
-101 -109 0
-101 -110 0
-102 -103 0
-102 -104 0
-102 -105 0
-102 -106 0
-102 -107 0
-102 -108 0
-102 -109 0
-102 -110 0
-103 -104 0
-103 -105 0
-103 -106 0
-103 -107 0
-103 -108 0
-103 -109 0
-103 -110 0
-104 -105 0
-104 -106 0
-104 -107 0
-104 -108 0
-104 -109 0
-104 -110 0
-105 -106 0
-105 -107 0
-105 -108 0
-105 -109 0
-105 -110 0
-106 -107 0
-106 -108 0
-106 -109 0
-106 -110 0
-107 -108 0
-107 -109 0
-107 -110 0
-108 -109 0
-108 -110 0
-109 -110 0
111 112 113 114 115 116 117 118 119 120 121 0
-111 -112 0
-111 -113 0
-111 -114 0
-111 -115 0
-111 -116 0
-111 -117 0
-111 -118 0
-111 -119 0
-111 -120 0
-111 -121 0
-112 -113 0
-112 -114 0
-112 -115 0
-112 -116 0
-112 -117 0
-112 -118 0
-112 -119 0
-112 -120 0
-112 -121 0
-113 -114 0
-113 -115 0
-113 -116 0
-113 -117 0
-113 -118 0
-113 -119 0
-113 -120 0
-113 -121 0
-114 -115 0
-114 -116 0
-114 -117 0
-114 -118 0
-114 -119 0
-114 -120 0
-114 -121 0
-115 -116 0
-115 -117 0
-115 -118 0
-115 -119 0
-115 -120 0
-115 -121 0
-116 -117 0
-116 -118 0
-116 -119 0
-116 -120 0
-116 -121 0
-117 -118 0
-117 -119 0
-117 -120 0
-117 -121 0
-118 -119 0
-118 -120 0
-118 -121 0
-119 -120 0
-119 -121 0
-120 -121 0
122 123 124 125 126 127 128 129 130 131 132 0
-122 -123 0
-122 -124 0
-122 -125 0
-122 -126 0
-122 -127 0
-122 -128 0
-122 -129 0
-122 -130 0
-122 -131 0
-122 -132 0
-123 -124 0
-123 -125 0
-123 -126 0
-123 -127 0
-123 -128 0
-123 -129 0
-123 -130 0
-123 -131 0
-123 -132 0
-124 -125 0
-124 -126 0
-124 -127 0
-124 -128 0
-124 -129 0
-124 -130 0
-124 -131 0
-124 -132 0
-125 -126 0
-125 -127 0
-125 -128 0
-125 -129 0
-125 -130 0
-125 -131 0
-125 -132 0
-126 -127 0
-126 -128 0
-126 -129 0
-126 -130 0
-126 -131 0
-126 -132 0
-127 -128 0
-127 -129 0
-127 -130 0
-127 -131 0
-127 -132 0
-128 -129 0
-128 -130 0
-128 -131 0
-128 -132 0
-129 -130 0
-129 -131 0
-129 -132 0
-130 -131 0
-130 -132 0
-131 -132 0
-1 -34 0
-1 -13 0
-1 -35 0
-1 -14 0
-1 -15 0
-1 -16 0
-1 -38 0
-1 -40 0
-1 -19 0
-1 -41 0
-1 -21 0
-1 -43 0
-1 -22 0
-1 -44 0
-2 -12 0
-2 -34 0
-2 -35 0
-2 -14 0
-2 -36 0
-2 -15 0
-2 -37 0
-2 -16 0
-2 -38 0
-2 -17 0
-2 -39 0
-2 -18 0
-2 -20 0
-2 -42 0
-2 -21 0
-3 -12 0
-3 -34 0
-3 -13 0
-3 -36 0
-3 -15 0
-3 -37 0
-3 -16 0
-3 -17 0
-3 -39 0
-3 -18 0
-3 -40 0
-3 -19 0
-3 -41 0
-3 -20 0
-3 -42 0
-3 -43 0
-3 -22 0
-3 -44 0
-4 -12 0
-4 -34 0
-4 -13 0
-4 -14 0
-4 -36 0
-4 -37 0
-4 -17 0
-4 -39 0
-4 -18 0
-4 -40 0
-4 -19 0
-4 -41 0
-4 -20 0
-4 -42 0
-4 -21 0
-4 -43 0
-4 -22 0
-4 -44 0
-5 -12 0
-5 -34 0
-5 -13 0
-5 -35 0
-5 -14 0
-5 -36 0
-5 -37 0
-5 -38 0
-5 -17 0
-5 -39 0
-5 -18 0
-5 -19 0
-5 -20 0
-5 -42 0
-5 -21 0
-5 -22 0
-6 -12 0
-6 -34 0
-6 -35 0
-6 -14 0
-6 -15 0
-6 -16 0
-6 -38 0
-6 -17 0
-6 -18 0
-6 -40 0
-6 -41 0
-6 -20 0
-6 -21 0
-6 -43 0
-6 -44 0
-7 -12 0
-7 -34 0
-7 -35 0
-7 -14 0
-7 -36 0
-7 -15 0
-7 -37 0
-7 -16 0
-7 -38 0
-7 -17 0
-7 -39 0
-7 -18 0
-7 -20 0
-7 -42 0
-7 -21 0
-8 -13 0
-8 -35 0
-8 -14 0
-8 -36 0
-8 -15 0
-8 -37 0
-8 -16 0
-8 -38 0
-8 -39 0
-8 -40 0
-8 -19 0
-8 -41 0
-8 -42 0
-8 -21 0
-8 -43 0
-8 -22 0
-8 -44 0
-9 -12 0
-9 -34 0
-9 -13 0
-9 -35 0
-9 -15 0
-9 -16 0
-9 -38 0
-9 -17 0
-9 -18 0
-9 -40 0
-9 -19 0
-9 -41 0
-9 -20 0
-9 -43 0
-9 -22 0
-9 -44 0
-10 -34 0
-10 -13 0
-10 -35 0
-10 -14 0
-10 -15 0
-10 -16 0
-10 -38 0
-10 -40 0
-10 -19 0
-10 -41 0
-10 -21 0
-10 -43 0
-10 -22 0
-10 -44 0
-11 -12 0
-11 -34 0
-11 -13 0
-11 -35 0
-11 -36 0
-11 -15 0
-11 -37 0
-11 -16 0
-11 -38 0
-11 -17 0
-11 -39 0
-11 -18 0
-11 -19 0
-11 -20 0
-11 -42 0
-11 -22 0
-12 -45 0
-12 -24 0
-12 -46 0
-12 -25 0
-12 -26 0
-12 -27 0
-12 -49 0
-12 -51 0
-12 -30 0
-12 -52 0
-12 -32 0
-12 -54 0
-12 -33 0
-12 -55 0
-13 -23 0
-13 -45 0
-13 -46 0
-13 -25 0
-13 -47 0
-13 -26 0
-13 -48 0
-13 -27 0
-13 -49 0
-13 -28 0
-13 -50 0
-13 -29 0
-13 -31 0
-13 -53 0
-13 -32 0
-14 -23 0
-14 -45 0
-14 -24 0
-14 -47 0
-14 -26 0
-14 -48 0
-14 -27 0
-14 -28 0
-14 -50 0
-14 -29 0
-14 -51 0
-14 -30 0
-14 -52 0
-14 -31 0
-14 -53 0
-14 -54 0
-14 -33 0
-14 -55 0
-15 -23 0
-15 -45 0
-15 -24 0
-15 -25 0
-15 -47 0
-15 -48 0
-15 -28 0
-15 -50 0
-15 -29 0
-15 -51 0
-15 -30 0
-15 -52 0
-15 -31 0
-15 -53 0
-15 -32 0
-15 -54 0
-15 -33 0
-15 -55 0
-16 -23 0
-16 -45 0
-16 -24 0
-16 -46 0
-16 -25 0
-16 -47 0
-16 -48 0
-16 -49 0
-16 -28 0
-16 -50 0
-16 -29 0
-16 -30 0
-16 -31 0
-16 -53 0
-16 -32 0
-16 -33 0
-17 -23 0
-17 -45 0
-17 -46 0
-17 -25 0
-17 -26 0
-17 -27 0
-17 -49 0
-17 -28 0
-17 -29 0
-17 -51 0
-17 -52 0
-17 -31 0
-17 -32 0
-17 -54 0
-17 -55 0
-18 -23 0
-18 -45 0
-18 -46 0
-18 -25 0
-18 -47 0
-18 -26 0
-18 -48 0
-18 -27 0
-18 -49 0
-18 -28 0
-18 -50 0
-18 -29 0
-18 -31 0
-18 -53 0
-18 -32 0
-19 -24 0
-19 -46 0
-19 -25 0
-19 -47 0
-19 -26 0
-19 -48 0
-19 -27 0
-19 -49 0
-19 -50 0
-19 -51 0
-19 -30 0
-19 -52 0
-19 -53 0
-19 -32 0
-19 -54 0
-19 -33 0
-19 -55 0
-20 -23 0
-20 -45 0
-20 -24 0
-20 -46 0
-20 -26 0
-20 -27 0
-20 -49 0
-20 -28 0
-20 -29 0
-20 -51 0
-20 -30 0
-20 -52 0
-20 -31 0
-20 -54 0
-20 -33 0
-20 -55 0
-21 -45 0
-21 -24 0
-21 -46 0
-21 -25 0
-21 -26 0
-21 -27 0
-21 -49 0
-21 -51 0
-21 -30 0
-21 -52 0
-21 -32 0
-21 -54 0
-21 -33 0
-21 -55 0
-22 -23 0
-22 -45 0
-22 -24 0
-22 -46 0
-22 -47 0
-22 -26 0
-22 -48 0
-22 -27 0
-22 -49 0
-22 -28 0
-22 -50 0
-22 -29 0
-22 -30 0
-22 -31 0
-22 -53 0
-22 -33 0
-23 -56 0
-23 -2 0
-23 -57 0
-23 -3 0
-23 -4 0
-23 -5 0
-23 -60 0
-23 -62 0
-23 -8 0
-23 -63 0
-23 -10 0
-23 -65 0
-23 -11 0
-23 -66 0
-24 -1 0
-24 -56 0
-24 -57 0
-24 -3 0
-24 -58 0
-24 -4 0
-24 -59 0
-24 -5 0
-24 -60 0
-24 -6 0
-24 -61 0
-24 -7 0
-24 -9 0
-24 -64 0
-24 -10 0
-25 -1 0
-25 -56 0
-25 -2 0
-25 -58 0
-25 -4 0
-25 -59 0
-25 -5 0
-25 -6 0
-25 -61 0
-25 -7 0
-25 -62 0
-25 -8 0
-25 -63 0
-25 -9 0
-25 -64 0
-25 -65 0
-25 -11 0
-25 -66 0
-26 -1 0
-26 -56 0
-26 -2 0
-26 -3 0
-26 -58 0
-26 -59 0
-26 -6 0
-26 -61 0
-26 -7 0
-26 -62 0
-26 -8 0
-26 -63 0
-26 -9 0
-26 -64 0
-26 -10 0
-26 -65 0
-26 -11 0
-26 -66 0
-27 -1 0
-27 -56 0
-27 -2 0
-27 -57 0
-27 -3 0
-27 -58 0
-27 -59 0
-27 -60 0
-27 -6 0
-27 -61 0
-27 -7 0
-27 -8 0
-27 -9 0
-27 -64 0
-27 -10 0
-27 -11 0
-28 -1 0
-28 -56 0
-28 -57 0
-28 -3 0
-28 -4 0
-28 -5 0
-28 -60 0
-28 -6 0
-28 -7 0
-28 -62 0
-28 -63 0
-28 -9 0
-28 -10 0
-28 -65 0
-28 -66 0
-29 -1 0
-29 -56 0
-29 -57 0
-29 -3 0
-29 -58 0
-29 -4 0
-29 -59 0
-29 -5 0
-29 -60 0
-29 -6 0
-29 -61 0
-29 -7 0
-29 -9 0
-29 -64 0
-29 -10 0
-30 -2 0
-30 -57 0
-30 -3 0
-30 -58 0
-30 -4 0
-30 -59 0
-30 -5 0
-30 -60 0
-30 -61 0
-30 -62 0
-30 -8 0
-30 -63 0
-30 -64 0
-30 -10 0
-30 -65 0
-30 -11 0
-30 -66 0
-31 -1 0
-31 -56 0
-31 -2 0
-31 -57 0
-31 -4 0
-31 -5 0
-31 -60 0
-31 -6 0
-31 -7 0
-31 -62 0
-31 -8 0
-31 -63 0
-31 -9 0
-31 -65 0
-31 -11 0
-31 -66 0
-32 -56 0
-32 -2 0
-32 -57 0
-32 -3 0
-32 -4 0
-32 -5 0
-32 -60 0
-32 -62 0
-32 -8 0
-32 -63 0
-32 -10 0
-32 -65 0
-32 -11 0
-32 -66 0
-33 -1 0
-33 -56 0
-33 -2 0
-33 -57 0
-33 -58 0
-33 -4 0
-33 -59 0
-33 -5 0
-33 -60 0
-33 -6 0
-33 -61 0
-33 -7 0
-33 -8 0
-33 -9 0
-33 -64 0
-33 -11 0
-34 -67 0
-34 -46 0
-34 -68 0
-34 -47 0
-34 -48 0
-34 -49 0
-34 -71 0
-34 -73 0
-34 -52 0
-34 -74 0
-34 -54 0
-34 -76 0
-34 -55 0
-34 -77 0
-35 -45 0
-35 -67 0
-35 -68 0
-35 -47 0
-35 -69 0
-35 -48 0
-35 -70 0
-35 -49 0
-35 -71 0
-35 -50 0
-35 -72 0
-35 -51 0
-35 -53 0
-35 -75 0
-35 -54 0
-36 -45 0
-36 -67 0
-36 -46 0
-36 -69 0
-36 -48 0
-36 -70 0
-36 -49 0
-36 -50 0
-36 -72 0
-36 -51 0
-36 -73 0
-36 -52 0
-36 -74 0
-36 -53 0
-36 -75 0
-36 -76 0
-36 -55 0
-36 -77 0
-37 -45 0
-37 -67 0
-37 -46 0
-37 -47 0
-37 -69 0
-37 -70 0
-37 -50 0
-37 -72 0
-37 -51 0
-37 -73 0
-37 -52 0
-37 -74 0
-37 -53 0
-37 -75 0
-37 -54 0
-37 -76 0
-37 -55 0
-37 -77 0
-38 -45 0
-38 -67 0
-38 -46 0
-38 -68 0
-38 -47 0
-38 -69 0
-38 -70 0
-38 -71 0
-38 -50 0
-38 -72 0
-38 -51 0
-38 -52 0
-38 -53 0
-38 -75 0
-38 -54 0
-38 -55 0
-39 -45 0
-39 -67 0
-39 -68 0
-39 -47 0
-39 -48 0
-39 -49 0
-39 -71 0
-39 -50 0
-39 -51 0
-39 -73 0
-39 -74 0
-39 -53 0
-39 -54 0
-39 -76 0
-39 -77 0
-40 -45 0
-40 -67 0
-40 -68 0
-40 -47 0
-40 -69 0
-40 -48 0
-40 -70 0
-40 -49 0
-40 -71 0
-40 -50 0
-40 -72 0
-40 -51 0
-40 -53 0
-40 -75 0
-40 -54 0
-41 -46 0
-41 -68 0
-41 -47 0
-41 -69 0
-41 -48 0
-41 -70 0
-41 -49 0
-41 -71 0
-41 -72 0
-41 -73 0
-41 -52 0
-41 -74 0
-41 -75 0
-41 -54 0
-41 -76 0
-41 -55 0
-41 -77 0
-42 -45 0
-42 -67 0
-42 -46 0
-42 -68 0
-42 -48 0
-42 -49 0
-42 -71 0
-42 -50 0
-42 -51 0
-42 -73 0
-42 -52 0
-42 -74 0
-42 -53 0
-42 -76 0
-42 -55 0
-42 -77 0
-43 -67 0
-43 -46 0
-43 -68 0
-43 -47 0
-43 -48 0
-43 -49 0
-43 -71 0
-43 -73 0
-43 -52 0
-43 -74 0
-43 -54 0
-43 -76 0
-43 -55 0
-43 -77 0
-44 -45 0
-44 -67 0
-44 -46 0
-44 -68 0
-44 -69 0
-44 -48 0
-44 -70 0
-44 -49 0
-44 -71 0
-44 -50 0
-44 -72 0
-44 -51 0
-44 -52 0
-44 -53 0
-44 -75 0
-44 -55 0
-45 -78 0
-45 -57 0
-45 -79 0
-45 -58 0
-45 -59 0
-45 -60 0
-45 -82 0
-45 -84 0
-45 -63 0
-45 -85 0
-45 -65 0
-45 -87 0
-45 -66 0
-45 -88 0
-46 -56 0
-46 -78 0
-46 -79 0
-46 -58 0
-46 -80 0
-46 -59 0
-46 -81 0
-46 -60 0
-46 -82 0
-46 -61 0
-46 -83 0
-46 -62 0
-46 -64 0
-46 -86 0
-46 -65 0
-47 -56 0
-47 -78 0
-47 -57 0
-47 -80 0
-47 -59 0
-47 -81 0
-47 -60 0
-47 -61 0
-47 -83 0
-47 -62 0
-47 -84 0
-47 -63 0
-47 -85 0
-47 -64 0
-47 -86 0
-47 -87 0
-47 -66 0
-47 -88 0
-48 -56 0
-48 -78 0
-48 -57 0
-48 -58 0
-48 -80 0
-48 -81 0
-48 -61 0
-48 -83 0
-48 -62 0
-48 -84 0
-48 -63 0
-48 -85 0
-48 -64 0
-48 -86 0
-48 -65 0
-48 -87 0
-48 -66 0
-48 -88 0
-49 -56 0
-49 -78 0
-49 -57 0
-49 -79 0
-49 -58 0
-49 -80 0
-49 -81 0
-49 -82 0
-49 -61 0
-49 -83 0
-49 -62 0
-49 -63 0
-49 -64 0
-49 -86 0
-49 -65 0
-49 -66 0
-50 -56 0
-50 -78 0
-50 -79 0
-50 -58 0
-50 -59 0
-50 -60 0
-50 -82 0
-50 -61 0
-50 -62 0
-50 -84 0
-50 -85 0
-50 -64 0
-50 -65 0
-50 -87 0
-50 -88 0
-51 -56 0
-51 -78 0
-51 -79 0
-51 -58 0
-51 -80 0
-51 -59 0
-51 -81 0
-51 -60 0
-51 -82 0
-51 -61 0
-51 -83 0
-51 -62 0
-51 -64 0
-51 -86 0
-51 -65 0
-52 -57 0
-52 -79 0
-52 -58 0
-52 -80 0
-52 -59 0
-52 -81 0
-52 -60 0
-52 -82 0
-52 -83 0
-52 -84 0
-52 -63 0
-52 -85 0
-52 -86 0
-52 -65 0
-52 -87 0
-52 -66 0
-52 -88 0
-53 -56 0
-53 -78 0
-53 -57 0
-53 -79 0
-53 -59 0
-53 -60 0
-53 -82 0
-53 -61 0
-53 -62 0
-53 -84 0
-53 -63 0
-53 -85 0
-53 -64 0
-53 -87 0
-53 -66 0
-53 -88 0
-54 -78 0
-54 -57 0
-54 -79 0
-54 -58 0
-54 -59 0
-54 -60 0
-54 -82 0
-54 -84 0
-54 -63 0
-54 -85 0
-54 -65 0
-54 -87 0
-54 -66 0
-54 -88 0
-55 -56 0
-55 -78 0
-55 -57 0
-55 -79 0
-55 -80 0
-55 -59 0
-55 -81 0
-55 -60 0
-55 -82 0
-55 -61 0
-55 -83 0
-55 -62 0
-55 -63 0
-55 -64 0
-55 -86 0
-55 -66 0
-56 -89 0
-56 -35 0
-56 -90 0
-56 -36 0
-56 -37 0
-56 -38 0
-56 -93 0
-56 -95 0
-56 -41 0
-56 -96 0
-56 -43 0
-56 -98 0
-56 -44 0
-56 -99 0
-57 -34 0
-57 -89 0
-57 -90 0
-57 -36 0
-57 -91 0
-57 -37 0
-57 -92 0
-57 -38 0
-57 -93 0
-57 -39 0
-57 -94 0
-57 -40 0
-57 -42 0
-57 -97 0
-57 -43 0
-58 -34 0
-58 -89 0
-58 -35 0
-58 -91 0
-58 -37 0
-58 -92 0
-58 -38 0
-58 -39 0
-58 -94 0
-58 -40 0
-58 -95 0
-58 -41 0
-58 -96 0
-58 -42 0
-58 -97 0
-58 -98 0
-58 -44 0
-58 -99 0
-59 -34 0
-59 -89 0
-59 -35 0
-59 -36 0
-59 -91 0
-59 -92 0
-59 -39 0
-59 -94 0
-59 -40 0
-59 -95 0
-59 -41 0
-59 -96 0
-59 -42 0
-59 -97 0
-59 -43 0
-59 -98 0
-59 -44 0
-59 -99 0
-60 -34 0
-60 -89 0
-60 -35 0
-60 -90 0
-60 -36 0
-60 -91 0
-60 -92 0
-60 -93 0
-60 -39 0
-60 -94 0
-60 -40 0
-60 -41 0
-60 -42 0
-60 -97 0
-60 -43 0
-60 -44 0
-61 -34 0
-61 -89 0
-61 -90 0
-61 -36 0
-61 -37 0
-61 -38 0
-61 -93 0
-61 -39 0
-61 -40 0
-61 -95 0
-61 -96 0
-61 -42 0
-61 -43 0
-61 -98 0
-61 -99 0
-62 -34 0
-62 -89 0
-62 -90 0
-62 -36 0
-62 -91 0
-62 -37 0
-62 -92 0
-62 -38 0
-62 -93 0
-62 -39 0
-62 -94 0
-62 -40 0
-62 -42 0
-62 -97 0
-62 -43 0
-63 -35 0
-63 -90 0
-63 -36 0
-63 -91 0
-63 -37 0
-63 -92 0
-63 -38 0
-63 -93 0
-63 -94 0
-63 -95 0
-63 -41 0
-63 -96 0
-63 -97 0
-63 -43 0
-63 -98 0
-63 -44 0
-63 -99 0
-64 -34 0
-64 -89 0
-64 -35 0
-64 -90 0
-64 -37 0
-64 -38 0
-64 -93 0
-64 -39 0
-64 -40 0
-64 -95 0
-64 -41 0
-64 -96 0
-64 -42 0
-64 -98 0
-64 -44 0
-64 -99 0
-65 -89 0
-65 -35 0
-65 -90 0
-65 -36 0
-65 -37 0
-65 -38 0
-65 -93 0
-65 -95 0
-65 -41 0
-65 -96 0
-65 -43 0
-65 -98 0
-65 -44 0
-65 -99 0
-66 -34 0
-66 -89 0
-66 -35 0
-66 -90 0
-66 -91 0
-66 -37 0
-66 -92 0
-66 -38 0
-66 -93 0
-66 -39 0
-66 -94 0
-66 -40 0
-66 -41 0
-66 -42 0
-66 -97 0
-66 -44 0
-67 -100 0
-67 -79 0
-67 -101 0
-67 -80 0
-67 -81 0
-67 -82 0
-67 -104 0
-67 -106 0
-67 -85 0
-67 -107 0
-67 -87 0
-67 -109 0
-67 -88 0
-67 -110 0
-68 -78 0
-68 -100 0
-68 -101 0
-68 -80 0
-68 -102 0
-68 -81 0
-68 -103 0
-68 -82 0
-68 -104 0
-68 -83 0
-68 -105 0
-68 -84 0
-68 -86 0
-68 -108 0
-68 -87 0
-69 -78 0
-69 -100 0
-69 -79 0
-69 -102 0
-69 -81 0
-69 -103 0
-69 -82 0
-69 -83 0
-69 -105 0
-69 -84 0
-69 -106 0
-69 -85 0
-69 -107 0
-69 -86 0
-69 -108 0
-69 -109 0
-69 -88 0
-69 -110 0
-70 -78 0
-70 -100 0
-70 -79 0
-70 -80 0
-70 -102 0
-70 -103 0
-70 -83 0
-70 -105 0
-70 -84 0
-70 -106 0
-70 -85 0
-70 -107 0
-70 -86 0
-70 -108 0
-70 -87 0
-70 -109 0
-70 -88 0
-70 -110 0
-71 -78 0
-71 -100 0
-71 -79 0
-71 -101 0
-71 -80 0
-71 -102 0
-71 -103 0
-71 -104 0
-71 -83 0
-71 -105 0
-71 -84 0
-71 -85 0
-71 -86 0
-71 -108 0
-71 -87 0
-71 -88 0
-72 -78 0
-72 -100 0
-72 -101 0
-72 -80 0
-72 -81 0
-72 -82 0
-72 -104 0
-72 -83 0
-72 -84 0
-72 -106 0
-72 -107 0
-72 -86 0
-72 -87 0
-72 -109 0
-72 -110 0
-73 -78 0
-73 -100 0
-73 -101 0
-73 -80 0
-73 -102 0
-73 -81 0
-73 -103 0
-73 -82 0
-73 -104 0
-73 -83 0
-73 -105 0
-73 -84 0
-73 -86 0
-73 -108 0
-73 -87 0
-74 -79 0
-74 -101 0
-74 -80 0
-74 -102 0
-74 -81 0
-74 -103 0
-74 -82 0
-74 -104 0
-74 -105 0
-74 -106 0
-74 -85 0
-74 -107 0
-74 -108 0
-74 -87 0
-74 -109 0
-74 -88 0
-74 -110 0
-75 -78 0
-75 -100 0
-75 -79 0
-75 -101 0
-75 -81 0
-75 -82 0
-75 -104 0
-75 -83 0
-75 -84 0
-75 -106 0
-75 -85 0
-75 -107 0
-75 -86 0
-75 -109 0
-75 -88 0
-75 -110 0
-76 -100 0
-76 -79 0
-76 -101 0
-76 -80 0
-76 -81 0
-76 -82 0
-76 -104 0
-76 -106 0
-76 -85 0
-76 -107 0
-76 -87 0
-76 -109 0
-76 -88 0
-76 -110 0
-77 -78 0
-77 -100 0
-77 -79 0
-77 -101 0
-77 -102 0
-77 -81 0
-77 -103 0
-77 -82 0
-77 -104 0
-77 -83 0
-77 -105 0
-77 -84 0
-77 -85 0
-77 -86 0
-77 -108 0
-77 -88 0
-78 -111 0
-78 -90 0
-78 -112 0
-78 -91 0
-78 -92 0
-78 -93 0
-78 -115 0
-78 -117 0
-78 -96 0
-78 -118 0
-78 -98 0
-78 -120 0
-78 -99 0
-78 -121 0
-79 -89 0
-79 -111 0
-79 -112 0
-79 -91 0
-79 -113 0
-79 -92 0
-79 -114 0
-79 -93 0
-79 -115 0
-79 -94 0
-79 -116 0
-79 -95 0
-79 -97 0
-79 -119 0
-79 -98 0
-80 -89 0
-80 -111 0
-80 -90 0
-80 -113 0
-80 -92 0
-80 -114 0
-80 -93 0
-80 -94 0
-80 -116 0
-80 -95 0
-80 -117 0
-80 -96 0
-80 -118 0
-80 -97 0
-80 -119 0
-80 -120 0
-80 -99 0
-80 -121 0
-81 -89 0
-81 -111 0
-81 -90 0
-81 -91 0
-81 -113 0
-81 -114 0
-81 -94 0
-81 -116 0
-81 -95 0
-81 -117 0
-81 -96 0
-81 -118 0
-81 -97 0
-81 -119 0
-81 -98 0
-81 -120 0
-81 -99 0
-81 -121 0
-82 -89 0
-82 -111 0
-82 -90 0
-82 -112 0
-82 -91 0
-82 -113 0
-82 -114 0
-82 -115 0
-82 -94 0
-82 -116 0
-82 -95 0
-82 -96 0
-82 -97 0
-82 -119 0
-82 -98 0
-82 -99 0
-83 -89 0
-83 -111 0
-83 -112 0
-83 -91 0
-83 -92 0
-83 -93 0
-83 -115 0
-83 -94 0
-83 -95 0
-83 -117 0
-83 -118 0
-83 -97 0
-83 -98 0
-83 -120 0
-83 -121 0
-84 -89 0
-84 -111 0
-84 -112 0
-84 -91 0
-84 -113 0
-84 -92 0
-84 -114 0
-84 -93 0
-84 -115 0
-84 -94 0
-84 -116 0
-84 -95 0
-84 -97 0
-84 -119 0
-84 -98 0
-85 -90 0
-85 -112 0
-85 -91 0
-85 -113 0
-85 -92 0
-85 -114 0
-85 -93 0
-85 -115 0
-85 -116 0
-85 -117 0
-85 -96 0
-85 -118 0
-85 -119 0
-85 -98 0
-85 -120 0
-85 -99 0
-85 -121 0
-86 -89 0
-86 -111 0
-86 -90 0
-86 -112 0
-86 -92 0
-86 -93 0
-86 -115 0
-86 -94 0
-86 -95 0
-86 -117 0
-86 -96 0
-86 -118 0
-86 -97 0
-86 -120 0
-86 -99 0
-86 -121 0
-87 -111 0
-87 -90 0
-87 -112 0
-87 -91 0
-87 -92 0
-87 -93 0
-87 -115 0
-87 -117 0
-87 -96 0
-87 -118 0
-87 -98 0
-87 -120 0
-87 -99 0
-87 -121 0
-88 -89 0
-88 -111 0
-88 -90 0
-88 -112 0
-88 -113 0
-88 -92 0
-88 -114 0
-88 -93 0
-88 -115 0
-88 -94 0
-88 -116 0
-88 -95 0
-88 -96 0
-88 -97 0
-88 -119 0
-88 -99 0
-89 -122 0
-89 -68 0
-89 -123 0
-89 -69 0
-89 -70 0
-89 -71 0
-89 -126 0
-89 -128 0
-89 -74 0
-89 -129 0
-89 -76 0
-89 -131 0
-89 -77 0
-89 -132 0
-90 -67 0
-90 -122 0
-90 -123 0
-90 -69 0
-90 -124 0
-90 -70 0
-90 -125 0
-90 -71 0
-90 -126 0
-90 -72 0
-90 -127 0
-90 -73 0
-90 -75 0
-90 -130 0
-90 -76 0
-91 -67 0
-91 -122 0
-91 -68 0
-91 -124 0
-91 -70 0
-91 -125 0
-91 -71 0
-91 -72 0
-91 -127 0
-91 -73 0
-91 -128 0
-91 -74 0
-91 -129 0
-91 -75 0
-91 -130 0
-91 -131 0
-91 -77 0
-91 -132 0
-92 -67 0
-92 -122 0
-92 -68 0
-92 -69 0
-92 -124 0
-92 -125 0
-92 -72 0
-92 -127 0
-92 -73 0
-92 -128 0
-92 -74 0
-92 -129 0
-92 -75 0
-92 -130 0
-92 -76 0
-92 -131 0
-92 -77 0
-92 -132 0
-93 -67 0
-93 -122 0
-93 -68 0
-93 -123 0
-93 -69 0
-93 -124 0
-93 -125 0
-93 -126 0
-93 -72 0
-93 -127 0
-93 -73 0
-93 -74 0
-93 -75 0
-93 -130 0
-93 -76 0
-93 -77 0
-94 -67 0
-94 -122 0
-94 -123 0
-94 -69 0
-94 -70 0
-94 -71 0
-94 -126 0
-94 -72 0
-94 -73 0
-94 -128 0
-94 -129 0
-94 -75 0
-94 -76 0
-94 -131 0
-94 -132 0
-95 -67 0
-95 -122 0
-95 -123 0
-95 -69 0
-95 -124 0
-95 -70 0
-95 -125 0
-95 -71 0
-95 -126 0
-95 -72 0
-95 -127 0
-95 -73 0
-95 -75 0
-95 -130 0
-95 -76 0
-96 -68 0
-96 -123 0
-96 -69 0
-96 -124 0
-96 -70 0
-96 -125 0
-96 -71 0
-96 -126 0
-96 -127 0
-96 -128 0
-96 -74 0
-96 -129 0
-96 -130 0
-96 -76 0
-96 -131 0
-96 -77 0
-96 -132 0
-97 -67 0
-97 -122 0
-97 -68 0
-97 -123 0
-97 -70 0
-97 -71 0
-97 -126 0
-97 -72 0
-97 -73 0
-97 -128 0
-97 -74 0
-97 -129 0
-97 -75 0
-97 -131 0
-97 -77 0
-97 -132 0
-98 -122 0
-98 -68 0
-98 -123 0
-98 -69 0
-98 -70 0
-98 -71 0
-98 -126 0
-98 -128 0
-98 -74 0
-98 -129 0
-98 -76 0
-98 -131 0
-98 -77 0
-98 -132 0
-99 -67 0
-99 -122 0
-99 -68 0
-99 -123 0
-99 -124 0
-99 -70 0
-99 -125 0
-99 -71 0
-99 -126 0
-99 -72 0
-99 -127 0
-99 -73 0
-99 -74 0
-99 -75 0
-99 -130 0
-99 -77 0
-100 -1 0
-100 -112 0
-100 -2 0
-100 -113 0
-100 -114 0
-100 -115 0
-100 -5 0
-100 -7 0
-100 -118 0
-100 -8 0
-100 -120 0
-100 -10 0
-100 -121 0
-100 -11 0
-101 -111 0
-101 -1 0
-101 -2 0
-101 -113 0
-101 -3 0
-101 -114 0
-101 -4 0
-101 -115 0
-101 -5 0
-101 -116 0
-101 -6 0
-101 -117 0
-101 -119 0
-101 -9 0
-101 -120 0
-102 -111 0
-102 -1 0
-102 -112 0
-102 -3 0
-102 -114 0
-102 -4 0
-102 -115 0
-102 -116 0
-102 -6 0
-102 -117 0
-102 -7 0
-102 -118 0
-102 -8 0
-102 -119 0
-102 -9 0
-102 -10 0
-102 -121 0
-102 -11 0
-103 -111 0
-103 -1 0
-103 -112 0
-103 -113 0
-103 -3 0
-103 -4 0
-103 -116 0
-103 -6 0
-103 -117 0
-103 -7 0
-103 -118 0
-103 -8 0
-103 -119 0
-103 -9 0
-103 -120 0
-103 -10 0
-103 -121 0
-103 -11 0
-104 -111 0
-104 -1 0
-104 -112 0
-104 -2 0
-104 -113 0
-104 -3 0
-104 -4 0
-104 -5 0
-104 -116 0
-104 -6 0
-104 -117 0
-104 -118 0
-104 -119 0
-104 -9 0
-104 -120 0
-104 -121 0
-105 -111 0
-105 -1 0
-105 -2 0
-105 -113 0
-105 -114 0
-105 -115 0
-105 -5 0
-105 -116 0
-105 -117 0
-105 -7 0
-105 -8 0
-105 -119 0
-105 -120 0
-105 -10 0
-105 -11 0
-106 -111 0
-106 -1 0
-106 -2 0
-106 -113 0
-106 -3 0
-106 -114 0
-106 -4 0
-106 -115 0
-106 -5 0
-106 -116 0
-106 -6 0
-106 -117 0
-106 -119 0
-106 -9 0
-106 -120 0
-107 -112 0
-107 -2 0
-107 -113 0
-107 -3 0
-107 -114 0
-107 -4 0
-107 -115 0
-107 -5 0
-107 -6 0
-107 -7 0
-107 -118 0
-107 -8 0
-107 -9 0
-107 -120 0
-107 -10 0
-107 -121 0
-107 -11 0
-108 -111 0
-108 -1 0
-108 -112 0
-108 -2 0
-108 -114 0
-108 -115 0
-108 -5 0
-108 -116 0
-108 -117 0
-108 -7 0
-108 -118 0
-108 -8 0
-108 -119 0
-108 -10 0
-108 -121 0
-108 -11 0
-109 -1 0
-109 -112 0
-109 -2 0
-109 -113 0
-109 -114 0
-109 -115 0
-109 -5 0
-109 -7 0
-109 -118 0
-109 -8 0
-109 -120 0
-109 -10 0
-109 -121 0
-109 -11 0
-110 -111 0
-110 -1 0
-110 -112 0
-110 -2 0
-110 -3 0
-110 -114 0
-110 -4 0
-110 -115 0
-110 -5 0
-110 -116 0
-110 -6 0
-110 -117 0
-110 -118 0
-110 -119 0
-110 -9 0
-110 -121 0
-111 -12 0
-111 -123 0
-111 -13 0
-111 -124 0
-111 -125 0
-111 -126 0
-111 -16 0
-111 -18 0
-111 -129 0
-111 -19 0
-111 -131 0
-111 -21 0
-111 -132 0
-111 -22 0
-112 -122 0
-112 -12 0
-112 -13 0
-112 -124 0
-112 -14 0
-112 -125 0
-112 -15 0
-112 -126 0
-112 -16 0
-112 -127 0
-112 -17 0
-112 -128 0
-112 -130 0
-112 -20 0
-112 -131 0
-113 -122 0
-113 -12 0
-113 -123 0
-113 -14 0
-113 -125 0
-113 -15 0
-113 -126 0
-113 -127 0
-113 -17 0
-113 -128 0
-113 -18 0
-113 -129 0
-113 -19 0
-113 -130 0
-113 -20 0
-113 -21 0
-113 -132 0
-113 -22 0
-114 -122 0
-114 -12 0
-114 -123 0
-114 -124 0
-114 -14 0
-114 -15 0
-114 -127 0
-114 -17 0
-114 -128 0
-114 -18 0
-114 -129 0
-114 -19 0
-114 -130 0
-114 -20 0
-114 -131 0
-114 -21 0
-114 -132 0
-114 -22 0
-115 -122 0
-115 -12 0
-115 -123 0
-115 -13 0
-115 -124 0
-115 -14 0
-115 -15 0
-115 -16 0
-115 -127 0
-115 -17 0
-115 -128 0
-115 -129 0
-115 -130 0
-115 -20 0
-115 -131 0
-115 -132 0
-116 -122 0
-116 -12 0
-116 -13 0
-116 -124 0
-116 -125 0
-116 -126 0
-116 -16 0
-116 -127 0
-116 -128 0
-116 -18 0
-116 -19 0
-116 -130 0
-116 -131 0
-116 -21 0
-116 -22 0
-117 -122 0
-117 -12 0
-117 -13 0
-117 -124 0
-117 -14 0
-117 -125 0
-117 -15 0
-117 -126 0
-117 -16 0
-117 -127 0
-117 -17 0
-117 -128 0
-117 -130 0
-117 -20 0
-117 -131 0
-118 -123 0
-118 -13 0
-118 -124 0
-118 -14 0
-118 -125 0
-118 -15 0
-118 -126 0
-118 -16 0
-118 -17 0
-118 -18 0
-118 -129 0
-118 -19 0
-118 -20 0
-118 -131 0
-118 -21 0
-118 -132 0
-118 -22 0
-119 -122 0
-119 -12 0
-119 -123 0
-119 -13 0
-119 -125 0
-119 -126 0
-119 -16 0
-119 -127 0
-119 -128 0
-119 -18 0
-119 -129 0
-119 -19 0
-119 -130 0
-119 -21 0
-119 -132 0
-119 -22 0
-120 -12 0
-120 -123 0
-120 -13 0
-120 -124 0
-120 -125 0
-120 -126 0
-120 -16 0
-120 -18 0
-120 -129 0
-120 -19 0
-120 -131 0
-120 -21 0
-120 -132 0
-120 -22 0
-121 -122 0
-121 -12 0
-121 -123 0
-121 -13 0
-121 -14 0
-121 -125 0
-121 -15 0
-121 -126 0
-121 -16 0
-121 -127 0
-121 -17 0
-121 -128 0
-121 -129 0
-121 -130 0
-121 -20 0
-121 -132 0
-122 -23 0
-122 -101 0
-122 -24 0
-122 -102 0
-122 -103 0
-122 -104 0
-122 -27 0
-122 -29 0
-122 -107 0
-122 -30 0
-122 -109 0
-122 -32 0
-122 -110 0
-122 -33 0
-123 -100 0
-123 -23 0
-123 -24 0
-123 -102 0
-123 -25 0
-123 -103 0
-123 -26 0
-123 -104 0
-123 -27 0
-123 -105 0
-123 -28 0
-123 -106 0
-123 -108 0
-123 -31 0
-123 -109 0
-124 -100 0
-124 -23 0
-124 -101 0
-124 -25 0
-124 -103 0
-124 -26 0
-124 -104 0
-124 -105 0
-124 -28 0
-124 -106 0
-124 -29 0
-124 -107 0
-124 -30 0
-124 -108 0
-124 -31 0
-124 -32 0
-124 -110 0
-124 -33 0
-125 -100 0
-125 -23 0
-125 -101 0
-125 -102 0
-125 -25 0
-125 -26 0
-125 -105 0
-125 -28 0
-125 -106 0
-125 -29 0
-125 -107 0
-125 -30 0
-125 -108 0
-125 -31 0
-125 -109 0
-125 -32 0
-125 -110 0
-125 -33 0
-126 -100 0
-126 -23 0
-126 -101 0
-126 -24 0
-126 -102 0
-126 -25 0
-126 -26 0
-126 -27 0
-126 -105 0
-126 -28 0
-126 -106 0
-126 -107 0
-126 -108 0
-126 -31 0
-126 -109 0
-126 -110 0
-127 -100 0
-127 -23 0
-127 -24 0
-127 -102 0
-127 -103 0
-127 -104 0
-127 -27 0
-127 -105 0
-127 -106 0
-127 -29 0
-127 -30 0
-127 -108 0
-127 -109 0
-127 -32 0
-127 -33 0
-128 -100 0
-128 -23 0
-128 -24 0
-128 -102 0
-128 -25 0
-128 -103 0
-128 -26 0
-128 -104 0
-128 -27 0
-128 -105 0
-128 -28 0
-128 -106 0
-128 -108 0
-128 -31 0
-128 -109 0
-129 -101 0
-129 -24 0
-129 -102 0
-129 -25 0
-129 -103 0
-129 -26 0
-129 -104 0
-129 -27 0
-129 -28 0
-129 -29 0
-129 -107 0
-129 -30 0
-129 -31 0
-129 -109 0
-129 -32 0
-129 -110 0
-129 -33 0
-130 -100 0
-130 -23 0
-130 -101 0
-130 -24 0
-130 -103 0
-130 -104 0
-130 -27 0
-130 -105 0
-130 -106 0
-130 -29 0
-130 -107 0
-130 -30 0
-130 -108 0
-130 -32 0
-130 -110 0
-130 -33 0
-131 -23 0
-131 -101 0
-131 -24 0
-131 -102 0
-131 -103 0
-131 -104 0
-131 -27 0
-131 -29 0
-131 -107 0
-131 -30 0
-131 -109 0
-131 -32 0
-131 -110 0
-131 -33 0
-132 -100 0
-132 -23 0
-132 -101 0
-132 -24 0
-132 -25 0
-132 -103 0
-132 -26 0
-132 -104 0
-132 -27 0
-132 -105 0
-132 -28 0
-132 -106 0
-132 -107 0
-132 -108 0
-132 -31 0
-132 -110 0
