p cnf 66 1380
1 2 3 4 5 6 7 8 9 10 11 0
-1 -2 0
-1 -3 0
-1 -4 0
-1 -5 0
-1 -6 0
-1 -7 0
-1 -8 0
-1 -9 0
-1 -10 0
-1 -11 0
-2 -3 0
-2 -4 0
-2 -5 0
-2 -6 0
-2 -7 0
-2 -8 0
-2 -9 0
-2 -10 0
-2 -11 0
-3 -4 0
-3 -5 0
-3 -6 0
-3 -7 0
-3 -8 0
-3 -9 0
-3 -10 0
-3 -11 0
-4 -5 0
-4 -6 0
-4 -7 0
-4 -8 0
-4 -9 0
-4 -10 0
-4 -11 0
-5 -6 0
-5 -7 0
-5 -8 0
-5 -9 0
-5 -10 0
-5 -11 0
-6 -7 0
-6 -8 0
-6 -9 0
-6 -10 0
-6 -11 0
-7 -8 0
-7 -9 0
-7 -10 0
-7 -11 0
-8 -9 0
-8 -10 0
-8 -11 0
-9 -10 0
-9 -11 0
-10 -11 0
12 13 14 15 16 17 18 19 20 21 22 0
-12 -13 0
-12 -14 0
-12 -15 0
-12 -16 0
-12 -17 0
-12 -18 0
-12 -19 0
-12 -20 0
-12 -21 0
-12 -22 0
-13 -14 0
-13 -15 0
-13 -16 0
-13 -17 0
-13 -18 0
-13 -19 0
-13 -20 0
-13 -21 0
-13 -22 0
-14 -15 0
-14 -16 0
-14 -17 0
-14 -18 0
-14 -19 0
-14 -20 0
-14 -21 0
-14 -22 0
-15 -16 0
-15 -17 0
-15 -18 0
-15 -19 0
-15 -20 0
-15 -21 0
-15 -22 0
-16 -17 0
-16 -18 0
-16 -19 0
-16 -20 0
-16 -21 0
-16 -22 0
-17 -18 0
-17 -19 0
-17 -20 0
-17 -21 0
-17 -22 0
-18 -19 0
-18 -20 0
-18 -21 0
-18 -22 0
-19 -20 0
-19 -21 0
-19 -22 0
-20 -21 0
-20 -22 0
-21 -22 0
23 24 25 26 27 28 29 30 31 32 33 0
-23 -24 0
-23 -25 0
-23 -26 0
-23 -27 0
-23 -28 0
-23 -29 0
-23 -30 0
-23 -31 0
-23 -32 0
-23 -33 0
-24 -25 0
-24 -26 0
-24 -27 0
-24 -28 0
-24 -29 0
-24 -30 0
-24 -31 0
-24 -32 0
-24 -33 0
-25 -26 0
-25 -27 0
-25 -28 0
-25 -29 0
-25 -30 0
-25 -31 0
-25 -32 0
-25 -33 0
-26 -27 0
-26 -28 0
-26 -29 0
-26 -30 0
-26 -31 0
-26 -32 0
-26 -33 0
-27 -28 0
-27 -29 0
-27 -30 0
-27 -31 0
-27 -32 0
-27 -33 0
-28 -29 0
-28 -30 0
-28 -31 0
-28 -32 0
-28 -33 0
-29 -30 0
-29 -31 0
-29 -32 0
-29 -33 0
-30 -31 0
-30 -32 0
-30 -33 0
-31 -32 0
-31 -33 0
-32 -33 0
34 35 36 37 38 39 40 41 42 43 44 0
-34 -35 0
-34 -36 0
-34 -37 0
-34 -38 0
-34 -39 0
-34 -40 0
-34 -41 0
-34 -42 0
-34 -43 0
-34 -44 0
-35 -36 0
-35 -37 0
-35 -38 0
-35 -39 0
-35 -40 0
-35 -41 0
-35 -42 0
-35 -43 0
-35 -44 0
-36 -37 0
-36 -38 0
-36 -39 0
-36 -40 0
-36 -41 0
-36 -42 0
-36 -43 0
-36 -44 0
-37 -38 0
-37 -39 0
-37 -40 0
-37 -41 0
-37 -42 0
-37 -43 0
-37 -44 0
-38 -39 0
-38 -40 0
-38 -41 0
-38 -42 0
-38 -43 0
-38 -44 0
-39 -40 0
-39 -41 0
-39 -42 0
-39 -43 0
-39 -44 0
-40 -41 0
-40 -42 0
-40 -43 0
-40 -44 0
-41 -42 0
-41 -43 0
-41 -44 0
-42 -43 0
-42 -44 0
-43 -44 0
45 46 47 48 49 50 51 52 53 54 55 0
-45 -46 0
-45 -47 0
-45 -48 0
-45 -49 0
-45 -50 0
-45 -51 0
-45 -52 0
-45 -53 0
-45 -54 0
-45 -55 0
-46 -47 0
-46 -48 0
-46 -49 0
-46 -50 0
-46 -51 0
-46 -52 0
-46 -53 0
-46 -54 0
-46 -55 0
-47 -48 0
-47 -49 0
-47 -50 0
-47 -51 0
-47 -52 0
-47 -53 0
-47 -54 0
-47 -55 0
-48 -49 0
-48 -50 0
-48 -51 0
-48 -52 0
-48 -53 0
-48 -54 0
-48 -55 0
-49 -50 0
-49 -51 0
-49 -52 0
-49 -53 0
-49 -54 0
-49 -55 0
-50 -51 0
-50 -52 0
-50 -53 0
-50 -54 0
-50 -55 0
-51 -52 0
-51 -53 0
-51 -54 0
-51 -55 0
-52 -53 0
-52 -54 0
-52 -55 0
-53 -54 0
-53 -55 0
-54 -55 0
56 57 58 59 60 61 62 63 64 65 66 0
-56 -57 0
-56 -58 0
-56 -59 0
-56 -60 0
-56 -61 0
-56 -62 0
-56 -63 0
-56 -64 0
-56 -65 0
-56 -66 0
-57 -58 0
-57 -59 0
-57 -60 0
-57 -61 0
-57 -62 0
-57 -63 0
-57 -64 0
-57 -65 0
-57 -66 0
-58 -59 0
-58 -60 0
-58 -61 0
-58 -62 0
-58 -63 0
-58 -64 0
-58 -65 0
-58 -66 0
-59 -60 0
-59 -61 0
-59 -62 0
-59 -63 0
-59 -64 0
-59 -65 0
-59 -66 0
-60 -61 0
-60 -62 0
-60 -63 0
-60 -64 0
-60 -65 0
-60 -66 0
-61 -62 0
-61 -63 0
-61 -64 0
-61 -65 0
-61 -66 0
-62 -63 0
-62 -64 0
-62 -65 0
-62 -66 0
-63 -64 0
-63 -65 0
-63 -66 0
-64 -65 0
-64 -66 0
-65 -66 0
-1 -23 0
-1 -13 0
-1 -24 0
-1 -14 0
-1 -15 0
-1 -16 0
-1 -27 0
-1 -29 0
-1 -19 0
-1 -30 0
-1 -21 0
-1 -32 0
-1 -22 0
-1 -33 0
-2 -12 0
-2 -23 0
-2 -24 0
-2 -14 0
-2 -25 0
-2 -15 0
-2 -26 0
-2 -16 0
-2 -27 0
-2 -17 0
-2 -28 0
-2 -18 0
-2 -20 0
-2 -31 0
-2 -21 0
-3 -12 0
-3 -23 0
-3 -13 0
-3 -25 0
-3 -15 0
-3 -26 0
-3 -16 0
-3 -17 0
-3 -28 0
-3 -18 0
-3 -29 0
-3 -19 0
-3 -30 0
-3 -20 0
-3 -31 0
-3 -32 0
-3 -22 0
-3 -33 0
-4 -12 0
-4 -23 0
-4 -13 0
-4 -14 0
-4 -25 0
-4 -26 0
-4 -17 0
-4 -28 0
-4 -18 0
-4 -29 0
-4 -19 0
-4 -30 0
-4 -20 0
-4 -31 0
-4 -21 0
-4 -32 0
-4 -22 0
-4 -33 0
-5 -12 0
-5 -23 0
-5 -13 0
-5 -24 0
-5 -14 0
-5 -25 0
-5 -26 0
-5 -27 0
-5 -17 0
-5 -28 0
-5 -18 0
-5 -19 0
-5 -20 0
-5 -31 0
-5 -21 0
-5 -22 0
-6 -12 0
-6 -23 0
-6 -24 0
-6 -14 0
-6 -15 0
-6 -16 0
-6 -27 0
-6 -17 0
-6 -18 0
-6 -29 0
-6 -30 0
-6 -20 0
-6 -21 0
-6 -32 0
-6 -33 0
-7 -12 0
-7 -23 0
-7 -24 0
-7 -14 0
-7 -25 0
-7 -15 0
-7 -26 0
-7 -16 0
-7 -27 0
-7 -17 0
-7 -28 0
-7 -18 0
-7 -20 0
-7 -31 0
-7 -21 0
-8 -13 0
-8 -24 0
-8 -14 0
-8 -25 0
-8 -15 0
-8 -26 0
-8 -16 0
-8 -27 0
-8 -28 0
-8 -29 0
-8 -19 0
-8 -30 0
-8 -31 0
-8 -21 0
-8 -32 0
-8 -22 0
-8 -33 0
-9 -12 0
-9 -23 0
-9 -13 0
-9 -24 0
-9 -15 0
-9 -16 0
-9 -27 0
-9 -17 0
-9 -18 0
-9 -29 0
-9 -19 0
-9 -30 0
-9 -20 0
-9 -32 0
-9 -22 0
-9 -33 0
-10 -23 0
-10 -13 0
-10 -24 0
-10 -14 0
-10 -15 0
-10 -16 0
-10 -27 0
-10 -29 0
-10 -19 0
-10 -30 0
-10 -21 0
-10 -32 0
-10 -22 0
-10 -33 0
-11 -12 0
-11 -23 0
-11 -13 0
-11 -24 0
-11 -25 0
-11 -15 0
-11 -26 0
-11 -16 0
-11 -27 0
-11 -17 0
-11 -28 0
-11 -18 0
-11 -19 0
-11 -20 0
-11 -31 0
-11 -22 0
-12 -34 0
-12 -2 0
-12 -35 0
-12 -3 0
-12 -4 0
-12 -5 0
-12 -38 0
-12 -40 0
-12 -8 0
-12 -41 0
-12 -10 0
-12 -43 0
-12 -11 0
-12 -44 0
-13 -1 0
-13 -34 0
-13 -35 0
-13 -3 0
-13 -36 0
-13 -4 0
-13 -37 0
-13 -5 0
-13 -38 0
-13 -6 0
-13 -39 0
-13 -7 0
-13 -9 0
-13 -42 0
-13 -10 0
-14 -1 0
-14 -34 0
-14 -2 0
-14 -36 0
-14 -4 0
-14 -37 0
-14 -5 0
-14 -6 0
-14 -39 0
-14 -7 0
-14 -40 0
-14 -8 0
-14 -41 0
-14 -9 0
-14 -42 0
-14 -43 0
-14 -11 0
-14 -44 0
-15 -1 0
-15 -34 0
-15 -2 0
-15 -3 0
-15 -36 0
-15 -37 0
-15 -6 0
-15 -39 0
-15 -7 0
-15 -40 0
-15 -8 0
-15 -41 0
-15 -9 0
-15 -42 0
-15 -10 0
-15 -43 0
-15 -11 0
-15 -44 0
-16 -1 0
-16 -34 0
-16 -2 0
-16 -35 0
-16 -3 0
-16 -36 0
-16 -37 0
-16 -38 0
-16 -6 0
-16 -39 0
-16 -7 0
-16 -8 0
-16 -9 0
-16 -42 0
-16 -10 0
-16 -11 0
-17 -1 0
-17 -34 0
-17 -35 0
-17 -3 0
-17 -4 0
-17 -5 0
-17 -38 0
-17 -6 0
-17 -7 0
-17 -40 0
-17 -41 0
-17 -9 0
-17 -10 0
-17 -43 0
-17 -44 0
-18 -1 0
-18 -34 0
-18 -35 0
-18 -3 0
-18 -36 0
-18 -4 0
-18 -37 0
-18 -5 0
-18 -38 0
-18 -6 0
-18 -39 0
-18 -7 0
-18 -9 0
-18 -42 0
-18 -10 0
-19 -2 0
-19 -35 0
-19 -3 0
-19 -36 0
-19 -4 0
-19 -37 0
-19 -5 0
-19 -38 0
-19 -39 0
-19 -40 0
-19 -8 0
-19 -41 0
-19 -42 0
-19 -10 0
-19 -43 0
-19 -11 0
-19 -44 0
-20 -1 0
-20 -34 0
-20 -2 0
-20 -35 0
-20 -4 0
-20 -5 0
-20 -38 0
-20 -6 0
-20 -7 0
-20 -40 0
-20 -8 0
-20 -41 0
-20 -9 0
-20 -43 0
-20 -11 0
-20 -44 0
-21 -34 0
-21 -2 0
-21 -35 0
-21 -3 0
-21 -4 0
-21 -5 0
-21 -38 0
-21 -40 0
-21 -8 0
-21 -41 0
-21 -10 0
-21 -43 0
-21 -11 0
-21 -44 0
-22 -1 0
-22 -34 0
-22 -2 0
-22 -35 0
-22 -36 0
-22 -4 0
-22 -37 0
-22 -5 0
-22 -38 0
-22 -6 0
-22 -39 0
-22 -7 0
-22 -8 0
-22 -9 0
-22 -42 0
-22 -11 0
-23 -45 0
-23 -35 0
-23 -46 0
-23 -36 0
-23 -37 0
-23 -38 0
-23 -49 0
-23 -51 0
-23 -41 0
-23 -52 0
-23 -43 0
-23 -54 0
-23 -44 0
-23 -55 0
-24 -34 0
-24 -45 0
-24 -46 0
-24 -36 0
-24 -47 0
-24 -37 0
-24 -48 0
-24 -38 0
-24 -49 0
-24 -39 0
-24 -50 0
-24 -40 0
-24 -42 0
-24 -53 0
-24 -43 0
-25 -34 0
-25 -45 0
-25 -35 0
-25 -47 0
-25 -37 0
-25 -48 0
-25 -38 0
-25 -39 0
-25 -50 0
-25 -40 0
-25 -51 0
-25 -41 0
-25 -52 0
-25 -42 0
-25 -53 0
-25 -54 0
-25 -44 0
-25 -55 0
-26 -34 0
-26 -45 0
-26 -35 0
-26 -36 0
-26 -47 0
-26 -48 0
-26 -39 0
-26 -50 0
-26 -40 0
-26 -51 0
-26 -41 0
-26 -52 0
-26 -42 0
-26 -53 0
-26 -43 0
-26 -54 0
-26 -44 0
-26 -55 0
-27 -34 0
-27 -45 0
-27 -35 0
-27 -46 0
-27 -36 0
-27 -47 0
-27 -48 0
-27 -49 0
-27 -39 0
-27 -50 0
-27 -40 0
-27 -41 0
-27 -42 0
-27 -53 0
-27 -43 0
-27 -44 0
-28 -34 0
-28 -45 0
-28 -46 0
-28 -36 0
-28 -37 0
-28 -38 0
-28 -49 0
-28 -39 0
-28 -40 0
-28 -51 0
-28 -52 0
-28 -42 0
-28 -43 0
-28 -54 0
-28 -55 0
-29 -34 0
-29 -45 0
-29 -46 0
-29 -36 0
-29 -47 0
-29 -37 0
-29 -48 0
-29 -38 0
-29 -49 0
-29 -39 0
-29 -50 0
-29 -40 0
-29 -42 0
-29 -53 0
-29 -43 0
-30 -35 0
-30 -46 0
-30 -36 0
-30 -47 0
-30 -37 0
-30 -48 0
-30 -38 0
-30 -49 0
-30 -50 0
-30 -51 0
-30 -41 0
-30 -52 0
-30 -53 0
-30 -43 0
-30 -54 0
-30 -44 0
-30 -55 0
-31 -34 0
-31 -45 0
-31 -35 0
-31 -46 0
-31 -37 0
-31 -38 0
-31 -49 0
-31 -39 0
-31 -40 0
-31 -51 0
-31 -41 0
-31 -52 0
-31 -42 0
-31 -54 0
-31 -44 0
-31 -55 0
-32 -45 0
-32 -35 0
-32 -46 0
-32 -36 0
-32 -37 0
-32 -38 0
-32 -49 0
-32 -51 0
-32 -41 0
-32 -52 0
-32 -43 0
-32 -54 0
-32 -44 0
-32 -55 0
-33 -34 0
-33 -45 0
-33 -35 0
-33 -46 0
-33 -47 0
-33 -37 0
-33 -48 0
-33 -38 0
-33 -49 0
-33 -39 0
-33 -50 0
-33 -40 0
-33 -41 0
-33 -42 0
-33 -53 0
-33 -44 0
-34 -56 0
-34 -24 0
-34 -57 0
-34 -25 0
-34 -26 0
-34 -27 0
-34 -60 0
-34 -62 0
-34 -30 0
-34 -63 0
-34 -32 0
-34 -65 0
-34 -33 0
-34 -66 0
-35 -23 0
-35 -56 0
-35 -57 0
-35 -25 0
-35 -58 0
-35 -26 0
-35 -59 0
-35 -27 0
-35 -60 0
-35 -28 0
-35 -61 0
-35 -29 0
-35 -31 0
-35 -64 0
-35 -32 0
-36 -23 0
-36 -56 0
-36 -24 0
-36 -58 0
-36 -26 0
-36 -59 0
-36 -27 0
-36 -28 0
-36 -61 0
-36 -29 0
-36 -62 0
-36 -30 0
-36 -63 0
-36 -31 0
-36 -64 0
-36 -65 0
-36 -33 0
-36 -66 0
-37 -23 0
-37 -56 0
-37 -24 0
-37 -25 0
-37 -58 0
-37 -59 0
-37 -28 0
-37 -61 0
-37 -29 0
-37 -62 0
-37 -30 0
-37 -63 0
-37 -31 0
-37 -64 0
-37 -32 0
-37 -65 0
-37 -33 0
-37 -66 0
-38 -23 0
-38 -56 0
-38 -24 0
-38 -57 0
-38 -25 0
-38 -58 0
-38 -59 0
-38 -60 0
-38 -28 0
-38 -61 0
-38 -29 0
-38 -30 0
-38 -31 0
-38 -64 0
-38 -32 0
-38 -33 0
-39 -23 0
-39 -56 0
-39 -57 0
-39 -25 0
-39 -26 0
-39 -27 0
-39 -60 0
-39 -28 0
-39 -29 0
-39 -62 0
-39 -63 0
-39 -31 0
-39 -32 0
-39 -65 0
-39 -66 0
-40 -23 0
-40 -56 0
-40 -57 0
-40 -25 0
-40 -58 0
-40 -26 0
-40 -59 0
-40 -27 0
-40 -60 0
-40 -28 0
-40 -61 0
-40 -29 0
-40 -31 0
-40 -64 0
-40 -32 0
-41 -24 0
-41 -57 0
-41 -25 0
-41 -58 0
-41 -26 0
-41 -59 0
-41 -27 0
-41 -60 0
-41 -61 0
-41 -62 0
-41 -30 0
-41 -63 0
-41 -64 0
-41 -32 0
-41 -65 0
-41 -33 0
-41 -66 0
-42 -23 0
-42 -56 0
-42 -24 0
-42 -57 0
-42 -26 0
-42 -27 0
-42 -60 0
-42 -28 0
-42 -29 0
-42 -62 0
-42 -30 0
-42 -63 0
-42 -31 0
-42 -65 0
-42 -33 0
-42 -66 0
-43 -56 0
-43 -24 0
-43 -57 0
-43 -25 0
-43 -26 0
-43 -27 0
-43 -60 0
-43 -62 0
-43 -30 0
-43 -63 0
-43 -32 0
-43 -65 0
-43 -33 0
-43 -66 0
-44 -23 0
-44 -56 0
-44 -24 0
-44 -57 0
-44 -58 0
-44 -26 0
-44 -59 0
-44 -27 0
-44 -60 0
-44 -28 0
-44 -61 0
-44 -29 0
-44 -30 0
-44 -31 0
-44 -64 0
-44 -33 0
-45 -1 0
-45 -57 0
-45 -2 0
-45 -58 0
-45 -59 0
-45 -60 0
-45 -5 0
-45 -7 0
-45 -63 0
-45 -8 0
-45 -65 0
-45 -10 0
-45 -66 0
-45 -11 0
-46 -56 0
-46 -1 0
-46 -2 0
-46 -58 0
-46 -3 0
-46 -59 0
-46 -4 0
-46 -60 0
-46 -5 0
-46 -61 0
-46 -6 0
-46 -62 0
-46 -64 0
-46 -9 0
-46 -65 0
-47 -56 0
-47 -1 0
-47 -57 0
-47 -3 0
-47 -59 0
-47 -4 0
-47 -60 0
-47 -61 0
-47 -6 0
-47 -62 0
-47 -7 0
-47 -63 0
-47 -8 0
-47 -64 0
-47 -9 0
-47 -10 0
-47 -66 0
-47 -11 0
-48 -56 0
-48 -1 0
-48 -57 0
-48 -58 0
-48 -3 0
-48 -4 0
-48 -61 0
-48 -6 0
-48 -62 0
-48 -7 0
-48 -63 0
-48 -8 0
-48 -64 0
-48 -9 0
-48 -65 0
-48 -10 0
-48 -66 0
-48 -11 0
-49 -56 0
-49 -1 0
-49 -57 0
-49 -2 0
-49 -58 0
-49 -3 0
-49 -4 0
-49 -5 0
-49 -61 0
-49 -6 0
-49 -62 0
-49 -63 0
-49 -64 0
-49 -9 0
-49 -65 0
-49 -66 0
-50 -56 0
-50 -1 0
-50 -2 0
-50 -58 0
-50 -59 0
-50 -60 0
-50 -5 0
-50 -61 0
-50 -62 0
-50 -7 0
-50 -8 0
-50 -64 0
-50 -65 0
-50 -10 0
-50 -11 0
-51 -56 0
-51 -1 0
-51 -2 0
-51 -58 0
-51 -3 0
-51 -59 0
-51 -4 0
-51 -60 0
-51 -5 0
-51 -61 0
-51 -6 0
-51 -62 0
-51 -64 0
-51 -9 0
-51 -65 0
-52 -57 0
-52 -2 0
-52 -58 0
-52 -3 0
-52 -59 0
-52 -4 0
-52 -60 0
-52 -5 0
-52 -6 0
-52 -7 0
-52 -63 0
-52 -8 0
-52 -9 0
-52 -65 0
-52 -10 0
-52 -66 0
-52 -11 0
-53 -56 0
-53 -1 0
-53 -57 0
-53 -2 0
-53 -59 0
-53 -60 0
-53 -5 0
-53 -61 0
-53 -62 0
-53 -7 0
-53 -63 0
-53 -8 0
-53 -64 0
-53 -10 0
-53 -66 0
-53 -11 0
-54 -1 0
-54 -57 0
-54 -2 0
-54 -58 0
-54 -59 0
-54 -60 0
-54 -5 0
-54 -7 0
-54 -63 0
-54 -8 0
-54 -65 0
-54 -10 0
-54 -66 0
-54 -11 0
-55 -56 0
-55 -1 0
-55 -57 0
-55 -2 0
-55 -3 0
-55 -59 0
-55 -4 0
-55 -60 0
-55 -5 0
-55 -61 0
-55 -6 0
-55 -62 0
-55 -63 0
-55 -64 0
-55 -9 0
-55 -66 0
-56 -12 0
-56 -46 0
-56 -13 0
-56 -47 0
-56 -48 0
-56 -49 0
-56 -16 0
-56 -18 0
-56 -52 0
-56 -19 0
-56 -54 0
-56 -21 0
-56 -55 0
-56 -22 0
-57 -45 0
-57 -12 0
-57 -13 0
-57 -47 0
-57 -14 0
-57 -48 0
-57 -15 0
-57 -49 0
-57 -16 0
-57 -50 0
-57 -17 0
-57 -51 0
-57 -53 0
-57 -20 0
-57 -54 0
-58 -45 0
-58 -12 0
-58 -46 0
-58 -14 0
-58 -48 0
-58 -15 0
-58 -49 0
-58 -50 0
-58 -17 0
-58 -51 0
-58 -18 0
-58 -52 0
-58 -19 0
-58 -53 0
-58 -20 0
-58 -21 0
-58 -55 0
-58 -22 0
-59 -45 0
-59 -12 0
-59 -46 0
-59 -47 0
-59 -14 0
-59 -15 0
-59 -50 0
-59 -17 0
-59 -51 0
-59 -18 0
-59 -52 0
-59 -19 0
-59 -53 0
-59 -20 0
-59 -54 0
-59 -21 0
-59 -55 0
-59 -22 0
-60 -45 0
-60 -12 0
-60 -46 0
-60 -13 0
-60 -47 0
-60 -14 0
-60 -15 0
-60 -16 0
-60 -50 0
-60 -17 0
-60 -51 0
-60 -52 0
-60 -53 0
-60 -20 0
-60 -54 0
-60 -55 0
-61 -45 0
-61 -12 0
-61 -13 0
-61 -47 0
-61 -48 0
-61 -49 0
-61 -16 0
-61 -50 0
-61 -51 0
-61 -18 0
-61 -19 0
-61 -53 0
-61 -54 0
-61 -21 0
-61 -22 0
-62 -45 0
-62 -12 0
-62 -13 0
-62 -47 0
-62 -14 0
-62 -48 0
-62 -15 0
-62 -49 0
-62 -16 0
-62 -50 0
-62 -17 0
-62 -51 0
-62 -53 0
-62 -20 0
-62 -54 0
-63 -46 0
-63 -13 0
-63 -47 0
-63 -14 0
-63 -48 0
-63 -15 0
-63 -49 0
-63 -16 0
-63 -17 0
-63 -18 0
-63 -52 0
-63 -19 0
-63 -20 0
-63 -54 0
-63 -21 0
-63 -55 0
-63 -22 0
-64 -45 0
-64 -12 0
-64 -46 0
-64 -13 0
-64 -48 0
-64 -49 0
-64 -16 0
-64 -50 0
-64 -51 0
-64 -18 0
-64 -52 0
-64 -19 0
-64 -53 0
-64 -21 0
-64 -55 0
-64 -22 0
-65 -12 0
-65 -46 0
-65 -13 0
-65 -47 0
-65 -48 0
-65 -49 0
-65 -16 0
-65 -18 0
-65 -52 0
-65 -19 0
-65 -54 0
-65 -21 0
-65 -55 0
-65 -22 0
-66 -45 0
-66 -12 0
-66 -46 0
-66 -13 0
-66 -14 0
-66 -48 0
-66 -15 0
-66 -49 0
-66 -16 0
-66 -50 0
-66 -17 0
-66 -51 0
-66 -52 0
-66 -53 0
-66 -20 0
-66 -55 0
