p cnf 44 920
1 2 3 4 5 6 7 8 9 10 11 0
-1 -2 0
-1 -3 0
-1 -4 0
-1 -5 0
-1 -6 0
-1 -7 0
-1 -8 0
-1 -9 0
-1 -10 0
-1 -11 0
-2 -3 0
-2 -4 0
-2 -5 0
-2 -6 0
-2 -7 0
-2 -8 0
-2 -9 0
-2 -10 0
-2 -11 0
-3 -4 0
-3 -5 0
-3 -6 0
-3 -7 0
-3 -8 0
-3 -9 0
-3 -10 0
-3 -11 0
-4 -5 0
-4 -6 0
-4 -7 0
-4 -8 0
-4 -9 0
-4 -10 0
-4 -11 0
-5 -6 0
-5 -7 0
-5 -8 0
-5 -9 0
-5 -10 0
-5 -11 0
-6 -7 0
-6 -8 0
-6 -9 0
-6 -10 0
-6 -11 0
-7 -8 0
-7 -9 0
-7 -10 0
-7 -11 0
-8 -9 0
-8 -10 0
-8 -11 0
-9 -10 0
-9 -11 0
-10 -11 0
12 13 14 15 16 17 18 19 20 21 22 0
-12 -13 0
-12 -14 0
-12 -15 0
-12 -16 0
-12 -17 0
-12 -18 0
-12 -19 0
-12 -20 0
-12 -21 0
-12 -22 0
-13 -14 0
-13 -15 0
-13 -16 0
-13 -17 0
-13 -18 0
-13 -19 0
-13 -20 0
-13 -21 0
-13 -22 0
-14 -15 0
-14 -16 0
-14 -17 0
-14 -18 0
-14 -19 0
-14 -20 0
-14 -21 0
-14 -22 0
-15 -16 0
-15 -17 0
-15 -18 0
-15 -19 0
-15 -20 0
-15 -21 0
-15 -22 0
-16 -17 0
-16 -18 0
-16 -19 0
-16 -20 0
-16 -21 0
-16 -22 0
-17 -18 0
-17 -19 0
-17 -20 0
-17 -21 0
-17 -22 0
-18 -19 0
-18 -20 0
-18 -21 0
-18 -22 0
-19 -20 0
-19 -21 0
-19 -22 0
-20 -21 0
-20 -22 0
-21 -22 0
23 24 25 26 27 28 29 30 31 32 33 0
-23 -24 0
-23 -25 0
-23 -26 0
-23 -27 0
-23 -28 0
-23 -29 0
-23 -30 0
-23 -31 0
-23 -32 0
-23 -33 0
-24 -25 0
-24 -26 0
-24 -27 0
-24 -28 0
-24 -29 0
-24 -30 0
-24 -31 0
-24 -32 0
-24 -33 0
-25 -26 0
-25 -27 0
-25 -28 0
-25 -29 0
-25 -30 0
-25 -31 0
-25 -32 0
-25 -33 0
-26 -27 0
-26 -28 0
-26 -29 0
-26 -30 0
-26 -31 0
-26 -32 0
-26 -33 0
-27 -28 0
-27 -29 0
-27 -30 0
-27 -31 0
-27 -32 0
-27 -33 0
-28 -29 0
-28 -30 0
-28 -31 0
-28 -32 0
-28 -33 0
-29 -30 0
-29 -31 0
-29 -32 0
-29 -33 0
-30 -31 0
-30 -32 0
-30 -33 0
-31 -32 0
-31 -33 0
-32 -33 0
34 35 36 37 38 39 40 41 42 43 44 0
-34 -35 0
-34 -36 0
-34 -37 0
-34 -38 0
-34 -39 0
-34 -40 0
-34 -41 0
-34 -42 0
-34 -43 0
-34 -44 0
-35 -36 0
-35 -37 0
-35 -38 0
-35 -39 0
-35 -40 0
-35 -41 0
-35 -42 0
-35 -43 0
-35 -44 0
-36 -37 0
-36 -38 0
-36 -39 0
-36 -40 0
-36 -41 0
-36 -42 0
-36 -43 0
-36 -44 0
-37 -38 0
-37 -39 0
-37 -40 0
-37 -41 0
-37 -42 0
-37 -43 0
-37 -44 0
-38 -39 0
-38 -40 0
-38 -41 0
-38 -42 0
-38 -43 0
-38 -44 0
-39 -40 0
-39 -41 0
-39 -42 0
-39 -43 0
-39 -44 0
-40 -41 0
-40 -42 0
-40 -43 0
-40 -44 0
-41 -42 0
-41 -43 0
-41 -44 0
-42 -43 0
-42 -44 0
-43 -44 0
-1 -23 0
-1 -13 0
-1 -24 0
-1 -14 0
-1 -15 0
-1 -16 0
-1 -27 0
-1 -29 0
-1 -19 0
-1 -30 0
-1 -21 0
-1 -32 0
-1 -22 0
-1 -33 0
-2 -12 0
-2 -23 0
-2 -24 0
-2 -14 0
-2 -25 0
-2 -15 0
-2 -26 0
-2 -16 0
-2 -27 0
-2 -17 0
-2 -28 0
-2 -18 0
-2 -20 0
-2 -31 0
-2 -21 0
-3 -12 0
-3 -23 0
-3 -13 0
-3 -25 0
-3 -15 0
-3 -26 0
-3 -16 0
-3 -17 0
-3 -28 0
-3 -18 0
-3 -29 0
-3 -19 0
-3 -30 0
-3 -20 0
-3 -31 0
-3 -32 0
-3 -22 0
-3 -33 0
-4 -12 0
-4 -23 0
-4 -13 0
-4 -14 0
-4 -25 0
-4 -26 0
-4 -17 0
-4 -28 0
-4 -18 0
-4 -29 0
-4 -19 0
-4 -30 0
-4 -20 0
-4 -31 0
-4 -21 0
-4 -32 0
-4 -22 0
-4 -33 0
-5 -12 0
-5 -23 0
-5 -13 0
-5 -24 0
-5 -14 0
-5 -25 0
-5 -26 0
-5 -27 0
-5 -17 0
-5 -28 0
-5 -18 0
-5 -19 0
-5 -20 0
-5 -31 0
-5 -21 0
-5 -22 0
-6 -12 0
-6 -23 0
-6 -24 0
-6 -14 0
-6 -15 0
-6 -16 0
-6 -27 0
-6 -17 0
-6 -18 0
-6 -29 0
-6 -30 0
-6 -20 0
-6 -21 0
-6 -32 0
-6 -33 0
-7 -12 0
-7 -23 0
-7 -24 0
-7 -14 0
-7 -25 0
-7 -15 0
-7 -26 0
-7 -16 0
-7 -27 0
-7 -17 0
-7 -28 0
-7 -18 0
-7 -20 0
-7 -31 0
-7 -21 0
-8 -13 0
-8 -24 0
-8 -14 0
-8 -25 0
-8 -15 0
-8 -26 0
-8 -16 0
-8 -27 0
-8 -28 0
-8 -29 0
-8 -19 0
-8 -30 0
-8 -31 0
-8 -21 0
-8 -32 0
-8 -22 0
-8 -33 0
-9 -12 0
-9 -23 0
-9 -13 0
-9 -24 0
-9 -15 0
-9 -16 0
-9 -27 0
-9 -17 0
-9 -18 0
-9 -29 0
-9 -19 0
-9 -30 0
-9 -20 0
-9 -32 0
-9 -22 0
-9 -33 0
-10 -23 0
-10 -13 0
-10 -24 0
-10 -14 0
-10 -15 0
-10 -16 0
-10 -27 0
-10 -29 0
-10 -19 0
-10 -30 0
-10 -21 0
-10 -32 0
-10 -22 0
-10 -33 0
-11 -12 0
-11 -23 0
-11 -13 0
-11 -24 0
-11 -25 0
-11 -15 0
-11 -26 0
-11 -16 0
-11 -27 0
-11 -17 0
-11 -28 0
-11 -18 0
-11 -19 0
-11 -20 0
-11 -31 0
-11 -22 0
-12 -34 0
-12 -2 0
-12 -35 0
-12 -3 0
-12 -4 0
-12 -5 0
-12 -38 0
-12 -40 0
-12 -8 0
-12 -41 0
-12 -10 0
-12 -43 0
-12 -11 0
-12 -44 0
-13 -1 0
-13 -34 0
-13 -35 0
-13 -3 0
-13 -36 0
-13 -4 0
-13 -37 0
-13 -5 0
-13 -38 0
-13 -6 0
-13 -39 0
-13 -7 0
-13 -9 0
-13 -42 0
-13 -10 0
-14 -1 0
-14 -34 0
-14 -2 0
-14 -36 0
-14 -4 0
-14 -37 0
-14 -5 0
-14 -6 0
-14 -39 0
-14 -7 0
-14 -40 0
-14 -8 0
-14 -41 0
-14 -9 0
-14 -42 0
-14 -43 0
-14 -11 0
-14 -44 0
-15 -1 0
-15 -34 0
-15 -2 0
-15 -3 0
-15 -36 0
-15 -37 0
-15 -6 0
-15 -39 0
-15 -7 0
-15 -40 0
-15 -8 0
-15 -41 0
-15 -9 0
-15 -42 0
-15 -10 0
-15 -43 0
-15 -11 0
-15 -44 0
-16 -1 0
-16 -34 0
-16 -2 0
-16 -35 0
-16 -3 0
-16 -36 0
-16 -37 0
-16 -38 0
-16 -6 0
-16 -39 0
-16 -7 0
-16 -8 0
-16 -9 0
-16 -42 0
-16 -10 0
-16 -11 0
-17 -1 0
-17 -34 0
-17 -35 0
-17 -3 0
-17 -4 0
-17 -5 0
-17 -38 0
-17 -6 0
-17 -7 0
-17 -40 0
-17 -41 0
-17 -9 0
-17 -10 0
-17 -43 0
-17 -44 0
-18 -1 0
-18 -34 0
-18 -35 0
-18 -3 0
-18 -36 0
-18 -4 0
-18 -37 0
-18 -5 0
-18 -38 0
-18 -6 0
-18 -39 0
-18 -7 0
-18 -9 0
-18 -42 0
-18 -10 0
-19 -2 0
-19 -35 0
-19 -3 0
-19 -36 0
-19 -4 0
-19 -37 0
-19 -5 0
-19 -38 0
-19 -39 0
-19 -40 0
-19 -8 0
-19 -41 0
-19 -42 0
-19 -10 0
-19 -43 0
-19 -11 0
-19 -44 0
-20 -1 0
-20 -34 0
-20 -2 0
-20 -35 0
-20 -4 0
-20 -5 0
-20 -38 0
-20 -6 0
-20 -7 0
-20 -40 0
-20 -8 0
-20 -41 0
-20 -9 0
-20 -43 0
-20 -11 0
-20 -44 0
-21 -34 0
-21 -2 0
-21 -35 0
-21 -3 0
-21 -4 0
-21 -5 0
-21 -38 0
-21 -40 0
-21 -8 0
-21 -41 0
-21 -10 0
-21 -43 0
-21 -11 0
-21 -44 0
-22 -1 0
-22 -34 0
-22 -2 0
-22 -35 0
-22 -36 0
-22 -4 0
-22 -37 0
-22 -5 0
-22 -38 0
-22 -6 0
-22 -39 0
-22 -7 0
-22 -8 0
-22 -9 0
-22 -42 0
-22 -11 0
-23 -1 0
-23 -35 0
-23 -2 0
-23 -36 0
-23 -37 0
-23 -38 0
-23 -5 0
-23 -7 0
-23 -41 0
-23 -8 0
-23 -43 0
-23 -10 0
-23 -44 0
-23 -11 0
-24 -34 0
-24 -1 0
-24 -2 0
-24 -36 0
-24 -3 0
-24 -37 0
-24 -4 0
-24 -38 0
-24 -5 0
-24 -39 0
-24 -6 0
-24 -40 0
-24 -42 0
-24 -9 0
-24 -43 0
-25 -34 0
-25 -1 0
-25 -35 0
-25 -3 0
-25 -37 0
-25 -4 0
-25 -38 0
-25 -39 0
-25 -6 0
-25 -40 0
-25 -7 0
-25 -41 0
-25 -8 0
-25 -42 0
-25 -9 0
-25 -10 0
-25 -44 0
-25 -11 0
-26 -34 0
-26 -1 0
-26 -35 0
-26 -36 0
-26 -3 0
-26 -4 0
-26 -39 0
-26 -6 0
-26 -40 0
-26 -7 0
-26 -41 0
-26 -8 0
-26 -42 0
-26 -9 0
-26 -43 0
-26 -10 0
-26 -44 0
-26 -11 0
-27 -34 0
-27 -1 0
-27 -35 0
-27 -2 0
-27 -36 0
-27 -3 0
-27 -4 0
-27 -5 0
-27 -39 0
-27 -6 0
-27 -40 0
-27 -41 0
-27 -42 0
-27 -9 0
-27 -43 0
-27 -44 0
-28 -34 0
-28 -1 0
-28 -2 0
-28 -36 0
-28 -37 0
-28 -38 0
-28 -5 0
-28 -39 0
-28 -40 0
-28 -7 0
-28 -8 0
-28 -42 0
-28 -43 0
-28 -10 0
-28 -11 0
-29 -34 0
-29 -1 0
-29 -2 0
-29 -36 0
-29 -3 0
-29 -37 0
-29 -4 0
-29 -38 0
-29 -5 0
-29 -39 0
-29 -6 0
-29 -40 0
-29 -42 0
-29 -9 0
-29 -43 0
-30 -35 0
-30 -2 0
-30 -36 0
-30 -3 0
-30 -37 0
-30 -4 0
-30 -38 0
-30 -5 0
-30 -6 0
-30 -7 0
-30 -41 0
-30 -8 0
-30 -9 0
-30 -43 0
-30 -10 0
-30 -44 0
-30 -11 0
-31 -34 0
-31 -1 0
-31 -35 0
-31 -2 0
-31 -37 0
-31 -38 0
-31 -5 0
-31 -39 0
-31 -40 0
-31 -7 0
-31 -41 0
-31 -8 0
-31 -42 0
-31 -10 0
-31 -44 0
-31 -11 0
-32 -1 0
-32 -35 0
-32 -2 0
-32 -36 0
-32 -37 0
-32 -38 0
-32 -5 0
-32 -7 0
-32 -41 0
-32 -8 0
-32 -43 0
-32 -10 0
-32 -44 0
-32 -11 0
-33 -34 0
-33 -1 0
-33 -35 0
-33 -2 0
-33 -3 0
-33 -37 0
-33 -4 0
-33 -38 0
-33 -5 0
-33 -39 0
-33 -6 0
-33 -40 0
-33 -41 0
-33 -42 0
-33 -9 0
-33 -44 0
-34 -12 0
-34 -24 0
-34 -13 0
-34 -25 0
-34 -26 0
-34 -27 0
-34 -16 0
-34 -18 0
-34 -30 0
-34 -19 0
-34 -32 0
-34 -21 0
-34 -33 0
-34 -22 0
-35 -23 0
-35 -12 0
-35 -13 0
-35 -25 0
-35 -14 0
-35 -26 0
-35 -15 0
-35 -27 0
-35 -16 0
-35 -28 0
-35 -17 0
-35 -29 0
-35 -31 0
-35 -20 0
-35 -32 0
-36 -23 0
-36 -12 0
-36 -24 0
-36 -14 0
-36 -26 0
-36 -15 0
-36 -27 0
-36 -28 0
-36 -17 0
-36 -29 0
-36 -18 0
-36 -30 0
-36 -19 0
-36 -31 0
-36 -20 0
-36 -21 0
-36 -33 0
-36 -22 0
-37 -23 0
-37 -12 0
-37 -24 0
-37 -25 0
-37 -14 0
-37 -15 0
-37 -28 0
-37 -17 0
-37 -29 0
-37 -18 0
-37 -30 0
-37 -19 0
-37 -31 0
-37 -20 0
-37 -32 0
-37 -21 0
-37 -33 0
-37 -22 0
-38 -23 0
-38 -12 0
-38 -24 0
-38 -13 0
-38 -25 0
-38 -14 0
-38 -15 0
-38 -16 0
-38 -28 0
-38 -17 0
-38 -29 0
-38 -30 0
-38 -31 0
-38 -20 0
-38 -32 0
-38 -33 0
-39 -23 0
-39 -12 0
-39 -13 0
-39 -25 0
-39 -26 0
-39 -27 0
-39 -16 0
-39 -28 0
-39 -29 0
-39 -18 0
-39 -19 0
-39 -31 0
-39 -32 0
-39 -21 0
-39 -22 0
-40 -23 0
-40 -12 0
-40 -13 0
-40 -25 0
-40 -14 0
-40 -26 0
-40 -15 0
-40 -27 0
-40 -16 0
-40 -28 0
-40 -17 0
-40 -29 0
-40 -31 0
-40 -20 0
-40 -32 0
-41 -24 0
-41 -13 0
-41 -25 0
-41 -14 0
-41 -26 0
-41 -15 0
-41 -27 0
-41 -16 0
-41 -17 0
-41 -18 0
-41 -30 0
-41 -19 0
-41 -20 0
-41 -32 0
-41 -21 0
-41 -33 0
-41 -22 0
-42 -23 0
-42 -12 0
-42 -24 0
-42 -13 0
-42 -26 0
-42 -27 0
-42 -16 0
-42 -28 0
-42 -29 0
-42 -18 0
-42 -30 0
-42 -19 0
-42 -31 0
-42 -21 0
-42 -33 0
-42 -22 0
-43 -12 0
-43 -24 0
-43 -13 0
-43 -25 0
-43 -26 0
-43 -27 0
-43 -16 0
-43 -18 0
-43 -30 0
-43 -19 0
-43 -32 0
-43 -21 0
-43 -33 0
-43 -22 0
-44 -23 0
-44 -12 0
-44 -24 0
-44 -13 0
-44 -14 0
-44 -26 0
-44 -15 0
-44 -27 0
-44 -16 0
-44 -28 0
-44 -17 0
-44 -29 0
-44 -30 0
-44 -31 0
-44 -20 0
-44 -33 0
